%Mem=256MB 
%NProc=12 

#P HF/6-31G* SCF(Conver=6) NoSymm Test 
   Pop=chelpg IOp(6/33=2) GFInput GFPrint 

MEP - Input generated by R.E.D.-III.x MOLECULE 

0 1 
  C        1.75846185     -1.24886011      0.05267031
  H        1.88357935     -1.20652512     -1.03627161
  C        3.14666137     -1.26232808      0.71224721
  H        3.72583381     -2.11070729      0.33460647
  H        3.00278817     -1.43387388      1.79063741
  C        3.90565413      0.03285980      0.48955973
  C        3.17367018      1.33102191      0.85225184
  C        1.74427951      1.27230631      0.22993680
  H        1.83960148      1.38828496     -0.85827782
  H        1.15959903      2.12847437      0.58345219
  C        0.96845210     -0.02350862      0.51234669
  H        0.75355408     -0.11737376      1.58713034
  H        0.00000000      0.00000000      0.00000000
  C        5.15480301      0.00000000     -0.00000000
  H        5.60539069     -0.96242383     -0.23539898
  C        6.00344590      1.21078721     -0.26145345
  H        7.03664396      1.02387217      0.05763676
  C        5.46463820      2.47415084      0.43401421
  H        5.70340311      2.33709967      1.49806237
  C        3.92615729      2.57522662      0.26130065
  H        3.74651922      2.55195279     -0.82357960
  C        3.37565705      3.92504753      0.77974457
  H        3.38259739      3.93555581      1.87444847
  H        2.32475959      4.02759499      0.48542480
  C        4.14682479      5.16400767      0.28051424
  H        4.02246673      5.26254978     -0.80731927
  H        3.69328987      6.05408577      0.72771391
  C        5.65383874      5.06552507      0.59607610
  C        6.15239085      3.75240002     -0.06952523
  H        5.88592083      3.84766456     -1.13118976
  C        7.68242580      3.84142622     -0.00000000
  H        8.16393574      3.22514162     -0.76429971
  H        8.05162566      3.49469098      0.97365748
  C        7.96575370      5.35597323     -0.19642395
  H        8.64479331      5.73196567      0.57832639
  H        8.45895904      5.54011888     -1.15521715
  C        6.58832551      6.10111850     -0.12318500
  H        6.20068864      6.19801606     -1.14973414
  C        5.90144142      5.09275897      2.12190923
  H        5.43366790      4.24987290      2.63740071
  H        6.96850331      5.06497301      2.36248978
  H        5.49235090      6.00668663      2.56500012
  C        6.71678420      7.53912586      0.44329102
  H        7.16839827      7.46577779      1.44451684
  C        5.36254002      8.25791700      0.58194453
  H        4.81683319      8.24851809     -0.36983077
  H        5.49595167      9.30361666      0.87528488
  H        4.72304808      7.79559121      1.33740016
  C        3.06518307      1.41051203      2.39994882
  H        2.38359034      2.20787806      2.71053237
  H        2.68539983      0.47932454      2.82703604
  H        4.04205291      1.59800189      2.85632173
  O        6.06027291      1.51064073     -1.68347987
  O        6.79514003      0.43514665     -2.33217864
  H        6.07839213     -0.01759134     -2.80680032
  O        1.05394148     -2.47294901      0.27558472
  H        0.88402582     -2.56487756      1.22365513
  C        7.67979026      8.38237316     -0.43196275
  H        8.54534866      7.77257946     -0.70770350
  H        7.17021974      8.63096621     -1.37600442
  C        8.18812384      9.67489291      0.22778709
  H        7.33903977     10.28256090      0.56326080
  H        8.74683000      9.41655653      1.13772429
  C        9.05505553     10.55873630     -0.68859041
  H        9.28731365     11.49294276     -0.15582953
  H        8.45275263     10.85058164     -1.56114204
  C       10.38207902      9.95345508     -1.19426376
  H       10.15311023      9.03069769     -1.74617543
  C       11.06309424     10.91901585     -2.17753498
  H       11.32299925     11.86324038     -1.68171260
  H       11.98768496     10.49039903     -2.58081772
  H       10.40706814     11.15700591     -3.02278232
  C       11.33725807      9.59187067     -0.04583465
  H       11.58025272     10.47977048      0.55247545
  H       12.27838701      9.18511328     -0.43304014
  H       10.90847584      8.84341460      0.62840786



