%Mem=256MB 
%NProc=12 

#P HF/6-31G* SCF(Conver=6) NoSymm Test 
   Pop=chelpg IOp(6/33=2) GFInput GFPrint 

MEP - Input generated by R.E.D.-III.x MOLECULE 

0 1 
  C       -0.96384942      2.00597744      1.68583368
  H       -0.97906306      1.02755992      2.18153776
  C        0.38779891      2.68289872      1.96357304
  H        0.54140211      2.76985662      3.04368333
  H        0.33479494      3.70983050      1.56898755
  C        1.54822442      1.94125877      1.32593474
  C        1.42582943      1.62691123     -0.17029083
  C        0.01380588      1.01357099     -0.42331085
  H        0.00000000      0.00000000      0.00000000
  H       -0.14498702      0.90203142     -1.50134185
  C       -1.15440916      1.80702368      0.18217906
  H       -1.24336300      2.79103271     -0.30153500
  H       -2.09879719      1.28177673      0.00000000
  C        2.61160014      1.59809892      2.06930457
  H        2.62268938      1.85532137      3.12685979
  C        3.81659235      0.86622110      1.55259166
  H        4.73171833      1.29832271      1.97691624
  C        3.90165530      0.87471675      0.01549207
  H        4.20966811      1.89666444     -0.24680055
  C        2.51133847      0.58093781     -0.60722189
  H        2.19303974     -0.38251505     -0.18268298
  C        2.59505816      0.39117240     -2.14052194
  H        2.75129518      1.35856602     -2.62865198
  H        1.63484727      0.01776180     -2.51481243
  C        3.70857645     -0.56924040     -2.60587224
  H        3.48800215     -1.58759078     -2.25541352
  H        3.69424441     -0.60659532     -3.69956737
  C        5.09023445     -0.15059108     -2.06143215
  C        4.95276169     -0.11317355     -0.51349883
  H        4.60281965     -1.11557355     -0.23077604
  C        6.39398092     -0.00000000     -0.00000000
  H        6.49415436     -0.37053609      1.02394493
  H        6.72919916      1.04510721      0.00091298
  C        7.20813366     -0.84514223     -1.01755312
  H        8.07496225     -0.28428601     -1.38750190
  H        7.60394855     -1.75052901     -0.54839901
  C        6.24536936     -1.20358154     -2.20174540
  H        5.79094866     -2.18312172     -1.98409952
  C        5.53037109      1.20719002     -2.65521185
  H        4.84795945      2.02001028     -2.39340780
  H        6.52657599      1.49938936     -2.30952489
  H        5.56721989      1.15876007     -3.74851921
  C        6.99342832     -1.34860864     -3.55269682
  H        7.51267500     -0.39867352     -3.75286787
  C        6.05763518     -1.63666275     -4.74002528
  H        5.45686457     -2.53646809     -4.55630204
  H        6.62532135     -1.79946880     -5.66096827
  H        5.36943168     -0.81092018     -4.93337406
  C        1.56435092      2.95818244     -0.95888791
  H        1.28937211      2.82840534     -2.00978373
  H        0.91690264      3.73850695     -0.55189684
  H        2.58987646      3.33809243     -0.91777075
  O        3.79360135     -0.52955895      1.96074848
  O        3.96814938     -0.56969764      3.40488244
  H        3.07669807     -0.82917864      3.69111059
  O       -2.04721459      2.71889422      2.28794848
  H       -2.11073218      3.59223738      1.87636495
  C        8.08055971     -2.44751642     -3.44665649
  H        8.67053258     -2.28644367     -2.53681512
  H        7.58012644     -3.41802265     -3.31647247
  C        9.06001635     -2.51401297     -4.63095686
  H        8.53887959     -2.81591222     -5.54662299
  H        9.44364837     -1.50207847     -4.82439524
  C       10.26667081     -3.44220780     -4.39831895
  H       10.82007489     -3.08220718     -3.51890592
  H       10.95523913     -3.34405055     -5.25079088
  C        9.95914194     -4.94180043     -4.19905765
  H        9.28329924     -5.04294795     -3.33784326
  C        9.26423144     -5.56558726     -5.41982353
  H        9.89086077     -5.46874275     -6.31611096
  H        9.07704585     -6.63355972     -5.25999022
  H        8.30085646     -5.09166336     -5.63420361
  C       11.24914504     -5.70752345     -3.86390622
  H       11.96656230     -5.64668234     -4.69249928
  H       11.04587265     -6.76838146     -3.67815677
  H       11.73644907     -5.29809171     -2.97154901



