%Mem=256MB 
%NProc=12 

#P HF/6-31G* SCF(Conver=6) NoSymm Test 
   Pop=chelpg IOp(6/33=2) GFInput GFPrint 

MEP - Input generated by R.E.D.-III.x MOLECULE 

0 1 
  C        7.50856534      2.15077227     -0.05267069
  H        7.40442749      2.06952062      1.03627092
  C        6.75675961      0.98369511     -0.71224733
  H        7.14712391      0.03353454     -0.33460870
  H        6.97914803      1.00959070     -1.79063859
  C        5.25758924      1.06157740     -0.48955825
  C        4.57548069      2.38662622     -0.85224840
  C        5.41022869      3.54843635     -0.22993385
  H        5.26094721      3.53255520      0.85828080
  H        5.01638434      4.50747766     -0.58344830
  C        6.91917729      3.48427284     -0.51234541
  H        7.11571235      3.61219922     -1.58712928
  H        7.43187092      4.30622041      0.00000000
  C        4.59841718     -0.00000000     -0.00000000
  H        5.15473147     -0.90543036      0.23539877
  C        3.12047308     -0.04340617      0.26145234
  H        2.70869778     -1.00926010     -0.05764263
  C        2.36125199      1.10114236     -0.43401156
  H        2.34449943      0.82635191     -1.49806050
  C        3.12247662      2.44191657     -0.26129474
  H        3.24066314      2.57918552      0.82358653
  C        2.29745756      3.64375574     -0.77973231
  H        2.28486349      3.64373997     -1.87443600
  H        2.78944166      4.57802087     -0.48540813
  C        0.83856507      3.68055798     -0.28050169
  H        0.82460307      3.83860607      0.80733321
  H        0.34430773      4.54868537     -0.72769749
  C        0.09247134      2.36749770     -0.59606646
  C        0.91539026      1.22922401      0.06952825
  H        0.98227937      1.50418800      1.13119439
  C        0.00000000      0.00000000      0.00000000
  H        0.25016063     -0.74100081      0.76429887
  H        0.08671497     -0.49901197     -0.97365836
  C       -1.42095922      0.59581904      0.19642876
  H       -2.10830854      0.23523855     -0.57832103
  H       -1.84589116      0.28502045      1.15522163
  C       -1.28630409      2.15608090      0.12319644
  H       -1.15417419      2.53316473      1.14974605
  C       -0.06638276      2.17563018     -2.12190062
  H        0.89486962      2.10308891     -2.63739297
  H       -0.62970597      1.26895461     -2.36248351
  H       -0.60499442      3.01973906     -2.56498750
  C       -2.55819808      2.83920438     -0.44327496
  H       -2.74516723      2.42161978     -1.44450120
  C       -2.41426944      4.36561353     -0.58192703
  H       -2.10645303      4.81631630      0.36984790
  H       -3.36116005      4.82895746     -0.87526037
  H       -1.67654431      4.64570560     -1.33738597
  C        4.56870581      2.52094968     -2.39994556
  H        4.27725369      3.52862889     -2.71052792
  H        5.55535780      2.32636512     -2.82703350
  H        3.87512226      1.80795014     -2.85631881
  O        2.83874362      0.07393641      1.68347755
  O        3.33324434     -1.13113482      2.33216995
  H        4.10542312     -0.78124110      2.80680690
  O        8.91840103      2.06646607     -0.27558666
  H        9.08859201      2.15787795     -1.22365763
  C       -3.79196633      2.49824026      0.43198062
  H       -3.75832788      1.43998362      0.70772732
  H       -3.71953660      3.06057474      1.37602087
  C       -5.15113024      2.78404584     -0.22776676
  H       -5.19204676      3.82737043     -0.56324923
  H       -5.24242778      2.17530704     -1.13769950
  C       -6.36600191      2.54565934      0.68861481
  H       -7.27408560      2.86514178      0.15585510
  H       -6.27873122      3.20923705      1.56116194
  C       -6.58979125      1.10438808      1.19429770
  H       -5.69307623      0.78844867      1.74620352
  C       -7.77072921      1.06623123      2.17757692
  H       -8.70238122      1.36812871      1.68175942
  H       -7.92089450      0.05825106      2.58086595
  H       -7.60893365      1.74508288      3.02282062
  C       -6.81277747      0.10769343      0.04587456
  H       -7.68808477      0.39275443     -0.55242783
  H       -6.99029143     -0.90208866      0.43308489
  H       -5.95184952      0.05447943     -0.62837723



