%Mem=256MB 
%NProc=12 

#P HF/6-31G* SCF(Conver=6) NoSymm Test 
   Pop=chelpg IOp(6/33=2) GFInput GFPrint 

MEP - Input generated by R.E.D.-III.x MOLECULE 

0 1 
  C       -0.96470521      2.00480293      1.68622848
  H       -0.97978922      1.02613592      2.18143374
  C        0.38670225      2.68186798      1.96461152
  H        0.54021757      2.76775759      3.04482274
  H        0.33342146      3.70927088      1.57126410
  C        1.54756796      1.94133775      1.32645471
  C        1.42524939      1.62734332     -0.16986998
  C        0.01346018      1.01365677     -0.42314452
  H        0.00000000      0.00000000      0.00000000
  H       -0.14518255      0.90218123     -1.50120683
  C       -1.15508779      1.80650878      0.18249810
  H       -1.24426126      2.79068976     -0.30083205
  H       -2.09929773      1.28104499      0.00000000
  C        2.61141357      1.59915846      2.06950535
  H        2.62247255      1.85606373      3.12714607
  C        3.81695636      0.86852928      1.55258706
  H        4.73180863      1.30229559      1.97581065
  C        3.90136989      0.87557004      0.01533472
  H        4.20931154      1.89739453     -0.24784488
  C        2.51111284      0.58182031     -0.60732628
  H        2.19284326     -0.38198341     -0.18352900
  C        2.59528261      0.39344627     -2.14065250
  H        2.75364488      1.36109961     -2.62757530
  H        1.63462674      0.02222452     -2.51596594
  C        3.70732949     -0.56882326     -2.60585855
  H        3.48460012     -1.58683290     -2.25575163
  H        3.69357141     -0.60578317     -3.69964393
  C        5.08962655     -0.15280635     -2.06080424
  C        4.95193948     -0.11325702     -0.51281056
  H        4.60162177     -1.11513038     -0.22875841
  C        6.39333033     -0.00000000     -0.00000000
  H        6.49357497     -0.36751792      1.02501824
  H        6.72934449      1.04485771     -0.00248519
  C        7.20602543     -0.84915778     -1.01532234
  H        8.07454795     -0.29152308     -1.38615928
  H        7.59906204     -1.75439793     -0.54365343
  C        6.24267694     -1.20818746     -2.19904490
  H        5.78633266     -2.18639069     -1.97939492
  C        5.53225815      1.20368638     -2.65561168
  H        4.85396747      2.01850867     -2.38939143
  H        6.53115269      1.49209628     -2.31465690
  H        5.56337529      1.15625920     -3.74916413
  C        6.99003210     -1.35800633     -3.54992984
  H        7.51103327     -0.40957406     -3.75233677
  C        6.05165496     -1.64698884     -4.73505505
  H        5.44183860     -2.53883711     -4.54296627
  H        6.61748153     -1.82488424     -5.65434273
  H        5.37210759     -0.81595271     -4.93658902
  C        1.56355493      2.95930472     -0.95728889
  H        1.28837069      2.83078540     -2.00831681
  H        0.91624450      3.73918548     -0.54920916
  H        2.58913353      3.33916425     -0.91596322
  O        3.79617889     -0.52668294      1.96272468
  O        3.97627643     -0.56425432      3.40636235
  H        3.08754827     -0.82908027      3.69607418
  O       -2.04833972      2.71717574      2.28857928
  H       -2.11209623      3.59062716      1.87726506
  C        8.07407943     -2.45944140     -3.44169641
  H        8.64909949     -2.31293548     -2.52043210
  H        7.57557880     -3.43536869     -3.33567606
  C        9.07279778     -2.52307865     -4.60932112
  H        8.54820199     -2.75049174     -5.54418438
  H        9.52536410     -1.53069506     -4.74083120
  C       10.17264046     -3.57129173     -4.37331645
  H        9.69585268     -4.54852890     -4.20887897
  H       10.69446960     -3.32864658     -3.43631945
  C       11.23029211     -3.72997340     -5.49041501
  H       11.92392611     -4.50849947     -5.13961766
  C       10.62617310     -4.22841281     -6.81385495
  H        9.96608303     -3.47875865     -7.26533957
  H       11.41403956     -4.45029488     -7.54276807
  H       10.04104472     -5.14373552     -6.66582101
  C       12.05857871     -2.45275439     -5.70794674
  H       11.44867538     -1.64059059     -6.12016682
  H       12.87847063     -2.63495572     -6.41211823
  H       12.49810331     -2.09721589     -4.76851345



