%Mem=256MB 
%NProc=12 

#P HF/6-31G* SCF(Conver=6) NoSymm Test 
   Pop=chelpg IOp(6/33=2) GFInput GFPrint 

MEP - Input generated by R.E.D.-III.x MOLECULE 

0 1 
  C        1.75844358     -1.24869039      0.05689538
  H        1.88314731     -1.21070763     -1.03226481
  C        3.14675751     -1.25944157      0.71609043
  H        3.72610736     -2.10895007      0.34128994
  H        3.00335589     -1.42733706      1.79513917
  C        3.90570683      0.03504769      0.48881075
  C        3.17372524      1.33468531      0.84674652
  C        1.74423375      1.27324336      0.22476549
  H        1.83927495      1.38538099     -0.86386667
  H        1.15915494      2.13031517      0.57528105
  C        0.96861393     -0.02164677      0.51212533
  H        0.75408307     -0.11145378      1.58732253
  H        0.00000000      0.00000000      0.00000000
  C        5.15508174      0.00000000      0.00000000
  H        5.60520581     -0.96347294     -0.23197634
  C        6.00493672      1.20926940     -0.26420231
  H        7.03733517      1.02328194      0.05803746
  C        5.46561855      2.47495019      0.42658506
  H        5.70194482      2.33797892      1.49098780
  C        3.92634378      2.57658577      0.25103807
  H        3.74856146      2.54757636     -0.83403561
  C        3.37043511      3.92898805      0.76049534
  H        3.37648753      3.94816784      1.85493315
  H        2.31967460      4.02508587      0.46377992
  C        4.13995815      5.16419376      0.24976201
  H        4.01265104      5.25090476     -0.83819319
  H        3.69213718      6.06176637      0.69240171
  C        5.64411916      5.06899988      0.57053442
  C        6.15455541      3.75079031     -0.08053967
  H        5.89502999      3.83326635     -1.14439012
  C        7.68730405      3.84920943     -0.00000000
  H        8.17474826      3.24373041     -0.76922565
  H        8.05195762      3.49118777      0.97132689
  C        7.96773023      5.36977282     -0.17274934
  H        8.60190819      5.74185864      0.63825509
  H        8.50511673      5.58127084     -1.10352179
  C        6.57728607      6.08249006     -0.17900665
  H        6.22923406      6.05019988     -1.22022936
  C        5.86732081      5.08883544      2.10049178
  H        5.47376960      4.19225571      2.58661201
  H        6.92619747      5.15705072      2.36258672
  H        5.36023918      5.94514921      2.55476552
  C        6.67021179      7.59858818      0.15958403
  H        7.44108705      7.96946031     -0.53596550
  C        7.16691150      7.96718599      1.57239837
  H        6.38521557      7.84593267      2.32798433
  H        7.47269729      9.01945438      1.59083629
  H        8.03004893      7.37323463      1.88638440
  C        3.06530488      1.42018180      2.39407271
  H        2.38502193      2.21987560      2.70156846
  H        2.68385546      0.49119456      2.82452032
  H        4.04240493      1.60791211      2.84986659
  O        6.06562079      1.50315885     -1.68734132
  O        6.80514936      0.42626981     -2.32858874
  H        6.09146597     -0.02921327     -2.80516129
  O        1.05403830     -2.47193261      0.28493154
  H        0.88468011     -2.56015658      1.23345868
  C        5.39174210      8.41224020     -0.15321698
  H        4.56609233      8.06568667      0.48255295
  H        5.58183503      9.45129283      0.15236107
  C        4.93844352      8.42734562     -1.62151708
  H        5.78987482      8.72097028     -2.25055184
  H        4.65400376      7.41779727     -1.93789342
  C        3.76103205      9.38829868     -1.85447210
  H        4.06121694     10.39599143     -1.53242675
  H        2.93250899      9.09469463     -1.19349267
  C        3.21822945      9.48238515     -3.29964384
  H        2.39647007     10.21304831     -3.26547706
  C        4.26233584     10.02367368     -4.29031113
  H        5.09039021      9.31930570     -4.43019416
  H        3.81242708     10.19791323     -5.27440829
  H        4.68606344     10.97376137     -3.94402050
  C        2.62070349      8.15559285     -3.79698869
  H        3.39057404      7.38485708     -3.91827146
  H        2.13544500      8.28757602     -4.77082175
  H        1.86831938      7.77030419     -3.09867525



