%Mem=256MB 
%NProc=12 

#P HF/6-31G* SCF(Conver=6) NoSymm Test 
   Pop=chelpg IOp(6/33=2) GFInput GFPrint 

MEP - Input generated by R.E.D.-III.x MOLECULE 

0 1 
  C        7.51741273      2.15138906     -0.05689538
  H        7.41714435      2.06808262      1.03226481
  C        6.76338640      0.98563804     -0.71609043
  H        7.15468634      0.03474620     -0.34128994
  H        6.98246430      1.01316612     -1.79513917
  C        5.26481475      1.06303008     -0.48881075
  C        4.58134783      2.38882342     -0.84674652
  C        5.41831754      3.54929863     -0.22476549
  H        5.27240013      3.53152825      0.86386667
  H        5.02384758      4.50913338     -0.57528105
  C        6.92638609      3.48561334     -0.51212533
  H        7.11931852      3.61548200     -1.58732253
  H        7.44064553      4.30672159      0.00000000
  C        4.60744648     -0.00000000     -0.00000000
  H        5.16497763     -0.90556657      0.23197634
  C        3.13010910     -0.04538975      0.26420231
  H        2.71808962     -1.01010621     -0.05803746
  C        2.36912426      1.10078389     -0.42658506
  H        2.35367111      0.82807079     -1.49098780
  C        3.13018991      2.44260194     -0.25103807
  H        3.25213330      2.57518365      0.83403561
  C        2.30587317      3.65029738     -0.76049534
  H        2.28652339      3.65578208     -1.85493315
  H        2.80308103      4.58095134     -0.46377992
  C        0.85101767      3.68627396     -0.24976201
  H        0.84854366      3.84028622      0.83819319
  H        0.34727601      4.55369805     -0.69240171
  C        0.10386870      2.37733139     -0.57053442
  C        0.92461109      1.22641716      0.08053967
  H        0.99834141      1.48856136      1.14439012
  C        0.00000000      0.00000000      0.00000000
  H        0.23794057     -0.73999391      0.76922565
  H        0.09869164     -0.50140971     -0.97132689
  C       -1.42444810      0.60141457      0.17274934
  H       -2.08384063      0.27609776     -0.63825509
  H       -1.89648446      0.26870247      1.10352179
  C       -1.25569610      2.15474119      0.17900665
  H       -1.03743274      2.42776859      1.22022936
  C       -0.03537273      2.20176302     -2.10049178
  H        0.92995206      2.03779407     -2.58661201
  H       -0.67431363      1.35463397     -2.36258672
  H       -0.47207614      3.09601980     -2.55476552
  C       -2.57336474      2.91034561     -0.15958403
  H       -3.30687126      2.47016044      0.53596550
  C       -3.15428614      2.69796559     -1.57239837
  H       -2.62337226      3.28437955     -2.32798433
  H       -4.20144296      3.02082206     -1.59083629
  H       -3.13245467      1.65044097     -1.88638440
  C        4.56950842      2.52638959     -2.39407271
  H        4.27529746      3.53422637     -2.70156846
  H        5.55525643      2.33449946     -2.82452032
  H        3.87566470      1.81326403     -2.84986659
  O        2.85123280      0.06543253      1.68734132
  O        3.34446061     -1.14424464      2.32858874
  H        4.11722157     -0.79834101      2.80516129
  O        8.92648526      2.06758607     -0.28493154
  H        9.09326856      2.16058605     -1.23345868
  C       -2.55047735      4.42559824      0.15321698
  H       -1.80718366      4.92490915     -0.48255295
  H       -3.52300926      4.83784497     -0.15236107
  C       -2.31396698      4.81260034      1.62151708
  H       -3.02721154      4.26266134      2.25055184
  H       -1.31423150      4.49538935      1.93789342
  C       -2.46968056      6.32438135      1.85447210
  H       -3.47651923      6.62741852      1.53242675
  H       -1.76904343      6.85519339      1.19349267
  C       -2.24996269      6.82956546      3.29964384
  H       -2.40874871      7.91765743      3.26547706
  C       -3.27600661      6.25477392      4.29031113
  H       -3.14264811      5.17587457      4.43019416
  H       -3.17430505      6.72640312      5.27440829
  H       -4.30261841      6.42294016      3.94402050
  C       -0.81312126      6.59956159      3.79698869
  H       -0.59233953      5.53279558      3.91827146
  H       -0.65668938      7.07749927      4.77082175
  H       -0.07773332      7.01637544      3.09867525



