%Mem=256MB 
%NProc=12 

#P HF/6-31G* SCF(Conver=6) NoSymm Test 
   Pop=chelpg IOp(6/33=2) GFInput GFPrint 

MEP - Input generated by R.E.D.-III.x MOLECULE 

0 1 
  C        1.75597015     -1.24461830      0.14275309
  H        1.88490622     -1.27651301     -0.94579053
  C        3.14277897     -1.21510450      0.80581181
  H        3.72275200     -2.08593303      0.48494510
  H        2.99682078     -1.31482619      1.89283772
  C        3.89908397      0.06293855      0.49860395
  C        3.17121926      1.38294135      0.77681754
  C        1.74296706      1.28491132      0.15616849
  H        1.84130079      1.33371026     -0.93666424
  H        1.15751795      2.16076951      0.45569465
  C        0.96595725      0.00925577      0.51751527
  H        0.74548782     -0.01478461      1.59512551
  H        0.00000000      0.00000000      0.00000000
  C        5.14311444     -0.00000000     -0.00000000
  H        5.58811039     -0.97105719     -0.20963754
  C        5.97266832      1.19618642     -0.36203705
  H        7.02757110      1.01976393     -0.12483994
  C        5.46767625      2.48531473      0.31403291
  H        5.69190289      2.36117325      1.38376395
  C        3.93084326      2.58275226      0.10770538
  H        3.78036435      2.47102253     -0.97614328
  C        3.34911673      3.96275033      0.49388948
  H        3.28524082      4.05717590      1.58250585
  H        2.31934973      4.03659032      0.12560514
  C        4.15062538      5.16212154     -0.04802871
  H        4.09583822      5.17921416     -1.14585434
  H        3.67449405      6.08300367      0.30340964
  C        5.63099315      5.08541375      0.37137842
  C        6.18390071      3.74475224     -0.19497422
  H        5.99972792      3.78797817     -1.27784173
  C        7.70442917      3.85845217      0.00000000
  H        8.25586876      3.21797384     -0.69066122
  H        7.98790458      3.56023844      1.01777561
  C        7.99230847      5.36680437     -0.23594303
  H        8.58795565      5.78340035      0.58512588
  H        8.57592106      5.52231169     -1.14866350
  C        6.60878860      6.09175670     -0.32738616
  H        6.30583673      6.11484434     -1.38435860
  C        5.76921340      5.18638090      1.90835697
  H        5.29879324      4.34704868      2.42680444
  H        6.81610206      5.21325503      2.22465395
  H        5.29398907      6.10091504      2.27957597
  C        6.67671266      7.55867665      0.16614361
  H        6.99829767      7.53539599      1.21775994
  C        5.32511396      8.29651009      0.12149091
  H        4.84384322      8.21479801     -0.85935266
  H        5.46439929      9.36303545      0.33506443
  H        4.62349179      7.90708887      0.86349285
  C        3.05920676      1.56221840      2.31583347
  H        2.38710737      2.38662987      2.57151271
  H        2.66480196      0.66548202      2.79980830
  H        4.03641012      1.76630286      2.76408630
  O        5.87266845      1.23857163     -1.81734170
  O        7.10727792      1.79469579     -2.37813853
  H        7.37535098      1.05313445     -2.94428896
  O        1.04995941     -2.45028478      0.44736780
  H        0.86958501     -2.47212691      1.39770823
  C        7.76572462      8.37744658     -0.58017907
  H        7.80972404      9.37176667     -0.11191067
  H        8.74423869      7.91935371     -0.39768023
  C        7.56233548      8.56415456     -2.09355183
  H        7.61833422      7.59485076     -2.60400166
  H        6.54966188      8.94235807     -2.28132376
  C        8.55310087      9.55050121     -2.74122932
  H        8.44285685     10.52684747     -2.24720194
  H        8.25849176      9.70716163     -3.78967195
  C       10.04613518      9.15906302     -2.71749867
  H       10.34525086      8.99869525     -1.67183257
  C       10.32378206      7.86121398     -3.49259195
  H       10.02478595      7.96471210     -4.54389101
  H       11.39158382      7.61481523     -3.47408940
  H        9.78198973      7.00638115     -3.07548171
  C       10.90403669     10.30888544     -3.26976682
  H       10.65082336     10.51733398     -4.31734791
  H       11.97177048     10.06470512     -3.22884345
  H       10.74892951     11.23251414     -2.70028096



