%Mem=256MB 
%NProc=12 

#P HF/6-31G* SCF(Conver=6) NoSymm Test 
   Pop=chelpg IOp(6/33=2) GFInput GFPrint 

MEP - Input generated by R.E.D.-III.x MOLECULE 

0 1 
  C        7.51781151      2.15102378     -0.05725826
  H        7.41727623      2.06778004      1.03186367
  C        6.76398939      0.98519312     -0.71659197
  H        7.15524170      0.03430732     -0.34171159
  H        6.98325689      1.01274036     -1.79558244
  C        5.26540798      1.06270917     -0.48952225
  C        4.58200407      2.38832371     -0.84830962
  C        5.41863371      3.54900978     -0.22626088
  H        5.27195320      3.53159940      0.86229112
  H        5.02423613      4.50861160     -0.57746085
  C        6.92689966      3.48525430     -0.51261892
  H        7.12071930      3.61538171     -1.58763250
  H        7.44080772      4.30628450      0.00000000
  C        4.60803404     -0.00000000      0.00000000
  H        5.16550392     -0.90542311      0.23269696
  C        3.13064465     -0.04497393      0.26399125
  H        2.71882931     -1.01031117     -0.05667979
  C        2.36974709      1.10009154     -0.42865895
  H        2.35485152      0.82642910     -1.49285083
  C        3.13022021      2.44231044     -0.25364913
  H        3.25146705      2.57558936      0.83140689
  C        2.30611320      3.64948824     -0.76456431
  H        2.28835149      3.65403666     -1.85907955
  H        2.80281362      4.58053004     -0.46813116
  C        0.85027121      3.68619617     -0.25679957
  H        0.84307970      3.84343420      0.83100012
  H        0.34662176      4.55185064     -0.70217299
  C        0.10508210      2.37578777     -0.57594309
  C        0.92507107      1.22624350      0.07773728
  H        0.99835987      1.49074137      1.14104045
  C        0.00000000      0.00000000      0.00000000
  H        0.23732701     -0.73841515      0.77093838
  H        0.09817703     -0.50393380     -0.97007171
  C       -1.42413149      0.60292993      0.17162773
  H       -2.08429813      0.27441690     -0.63748775
  H       -1.89552398      0.27411606      1.10408989
  C       -1.25487044      2.15518459      0.17087413
  H       -1.04119412      2.44149261      1.21171466
  C       -0.03650164      2.19823021     -2.10530200
  H        0.92889890      2.04262003     -2.59406037
  H       -0.66912043      1.34560382     -2.36540460
  H       -0.48244371      3.08884675     -2.55788516
  C       -2.56655144      2.92263345     -0.16724662
  H       -3.29332782      2.50952465      0.55170064
  C       -3.17210743      2.68758811     -1.56584545
  H       -2.64885307      3.25663456     -2.34037475
  H       -4.22028185      3.00235044     -1.58421901
  H       -3.15233937      1.63309409     -1.85579616
  C        4.57120647      2.52532635     -2.39568570
  H        4.27663636      3.53290027     -2.70365108
  H        5.55732394      2.33389116     -2.82539540
  H        3.87808837      1.81170458     -2.85181179
  O        2.85135793      0.06832183      1.68685810
  O        3.34612867     -1.13931004      2.33069545
  H        4.11848984     -0.79130845      2.80641279
  O        8.92698373      2.06732345     -0.28486876
  H        9.09410921      2.16070644     -1.23329449
  C       -2.46304791      4.43210734      0.14827458
  H       -1.91147522      4.55999616      1.09009023
  H       -1.86292282      4.92932851     -0.62605612
  C       -3.81113541      5.16072456      0.27503515
  H       -4.35101658      5.11037982     -0.67786370
  H       -4.43085498      4.63118077      1.01157507
  C       -3.64221604      6.63016783      0.69381212
  H       -2.99122538      7.13087666     -0.03766501
  H       -3.10165249      6.66243029      1.65090551
  C       -4.93715111      7.46313249      0.83951342
  H       -4.61501795      8.46882864      1.14797826
  C       -5.69409503      7.62071786     -0.48972551
  H       -6.10524395      6.66591924     -0.83726488
  H       -6.53380495      8.31646848     -0.37984966
  H       -5.03921027      8.00986781     -1.27830018
  C       -5.86456402      6.92820818      1.94328930
  H       -6.28178407      5.94900240      1.68154400
  H       -6.70773569      7.60881708      2.10782620
  H       -5.33144132      6.82087168      2.89532371



