%Mem=256MB 
%NProc=12 

#P HF/6-31G* SCF(Conver=6) NoSymm Test 
   Pop=chelpg IOp(6/33=2) GFInput GFPrint 

MEP - Input generated by R.E.D.-III.x MOLECULE 

0 1 
  C       -0.92977272      2.00324551      1.71543912
  H       -0.98311409      1.01789183      2.19377145
  C        0.43827678      2.63212953      2.02640878
  H        0.57796968      2.69212637      3.11017663
  H        0.42442600      3.66740839      1.65106977
  C        1.58107344      1.86452257      1.39035589
  C        1.47656196      1.58557978     -0.11326158
  C        0.05019695      1.02167553     -0.39999203
  H        0.00000000      0.00000000      0.00000000
  H       -0.09560219      0.93996155     -1.48242428
  C       -1.10262102      1.83765614      0.20564745
  H       -1.15593454      2.83289079     -0.26028622
  H       -2.05917172      1.34399531      0.00000000
  C        2.61455325      1.45856536      2.14354723
  H        2.60851473      1.65718451      3.21379736
  C        3.78392229      0.67433657      1.62619467
  H        4.70794734      0.98520332      2.12594144
  C        3.92762000      0.77825616      0.09567481
  H        4.23810234      1.81547357     -0.09873184
  C        2.53922203      0.51605949     -0.55048673
  H        2.20140774     -0.43984257     -0.12388611
  C        2.60666289      0.31606852     -2.08260747
  H        2.74360638      1.27837591     -2.58588958
  H        1.64630712     -0.07445856     -2.43857261
  C        3.72567828     -0.63541004     -2.54852142
  H        3.52320316     -1.65263235     -2.18413496
  H        3.70437477     -0.68464891     -3.64184459
  C        5.10181000     -0.18671890     -2.02106250
  C        4.99741732     -0.16845977     -0.46780651
  H        4.68976289     -1.18507787     -0.18456364
  C        6.45197148     -0.00000000      0.00000000
  H        6.60218928     -0.37109285      1.01539930
  H        6.74063581      1.05914853     -0.00584915
  C        7.26956249     -0.80299112     -1.04900914
  H        8.09306569     -0.19851252     -1.44769452
  H        7.72825931     -1.69018555     -0.60142884
  C        6.28271861     -1.20264479     -2.19550861
  H        5.86300447     -2.19019175     -1.95448028
  C        5.49005597      1.18972339     -2.60951296
  H        4.80939273      1.98557418     -2.29665427
  H        6.49783428      1.49327613     -2.31121701
  H        5.46996428      1.16118362     -3.70440849
  C        6.99011688     -1.32361889     -3.56845887
  H        7.42591049     -0.34050519     -3.79960207
  C        6.04411421     -1.68460439     -4.72948407
  H        5.43239805     -2.56496852     -4.50339812
  H        6.61903859     -1.90408976     -5.63710652
  H        5.36186037     -0.86510642     -4.96915514
  C        1.66835230      2.92756028     -0.87191955
  H        1.41731380      2.82381388     -1.93161766
  H        1.02929926      3.71596062     -0.46700099
  H        2.70130660      3.28126527     -0.79839639
  O        3.49836118     -0.68247691      2.08140906
  O        4.75649840     -1.38899251      2.33822449
  H        4.62773201     -1.61222256      3.27411457
  O       -1.99891982      2.74115890      2.31316922
  H       -2.03341378      3.61941753      1.90865609
  C        8.19178770     -2.30711013     -3.52306084
  H        8.68884293     -2.26620134     -4.50344151
  H        8.92823353     -1.93759026     -2.80074008
  C        7.86031858     -3.77630258     -3.20981029
  H        7.45780064     -3.86358990     -2.19314664
  H        7.06080353     -4.12005025     -3.87795492
  C        9.05260517     -4.73711789     -3.38089081
  H        9.40620023     -4.66890330     -4.42001838
  H        8.69397949     -5.76910527     -3.25066542
  C       10.25964694     -4.52828248     -2.44154189
  H       10.62051407     -3.49729106     -2.56578842
  C        9.89156461     -4.72487820     -0.96230728
  H        9.50773452     -5.73870691     -0.78862347
  H       10.76817980     -4.58729423     -0.31897863
  H        9.12526580     -4.01769316     -0.62923896
  C       11.40901682     -5.46855701     -2.83893261
  H       11.10839937     -6.51917285     -2.73486806
  H       12.28969329     -5.31123336     -2.20567720
  H       11.71216878     -5.31126117     -3.88047918



