%Mem=256MB 
%NProc=12 

#P HF/6-31G* SCF(Conver=6) NoSymm Test 
   Pop=chelpg IOp(6/33=2) GFInput GFPrint 

MEP - Input generated by R.E.D.-III.x MOLECULE 

0 1 
  C        1.01426682     -0.88233073     -1.68741466
  H        1.14510698      0.08830345     -2.18136862
  C        2.24987424     -1.75269223     -1.96682023
  H        2.38847254     -1.85982897     -3.04715006
  H        2.04447075     -2.76086335     -1.57381223
  C        3.50798029     -1.19330082     -1.32852696
  C        3.43386378     -0.86627335      0.16817956
  C        2.12913146     -0.04963785      0.42246761
  H        2.26625871      0.95508377      0.00000000
  H        1.98909193      0.08331414      1.50068780
  C        0.85568697     -0.65964189     -0.18336512
  H        0.62150023     -1.62015811      0.29904212
  H        0.00000000      0.00000000      0.00000000
  C        4.61054480     -1.01132748     -2.07173545
  H        4.58313010     -1.26580659     -3.12965375
  C        5.91109243     -0.46780673     -1.55431761
  H        6.75160710     -1.03060181     -1.97981860
  C        5.99419049     -0.49137671     -0.01723687
  H        6.14645081     -1.54819472      0.24342204
  C        4.66335099      0.00532858      0.60655765
  H        4.49227119      1.00636089      0.18413107
  C        4.77465804      0.17705874      2.14017131
  H        4.78556293     -0.80392692      2.62605505
  H        3.88057992      0.68796342      2.51584019
  C        6.01850914      0.96051188      2.60706376
  H        5.95135285      2.00114882      2.25903546
  H        6.01093098      0.99685373      3.70092912
  C        7.32236238      0.34262854      2.06066541
  C        7.18100414      0.32772942      0.51286868
  H        6.98527633      1.37144550      0.23080186
  C        8.58930961      0.00000000      0.00000000
  H        8.74435715      0.35055785     -1.02415074
  H        8.76445769     -1.08345105      0.00004788
  C        9.52007795      0.71518207      1.01729770
  H       10.29558038      0.03326232      1.38646708
  H       10.04356666      1.55228305      0.54648115
  C        8.62133621      1.21197730      2.20193682
  H        8.31796161      2.24854877      1.98528493
  C        7.55600247     -1.06644333      2.65239714
  H        6.76065043     -1.76862952      2.38905243
  H        8.49797460     -1.50289212      2.30674596
  H        7.59884333     -1.02577076      3.74576748
  C        9.37935659      1.24193713      3.55462650
  H        9.75048559      0.22481047      3.75338511
  C        8.48956293      1.66505445      4.73746364
  H        7.99726755      2.62373455      4.53170362
  H        9.07656094      1.78557001      5.65301987
  H        7.71082558      0.93023085      4.95428289
  C        3.37238312     -2.20462854      0.95461499
  H        3.11936463     -2.03715373      2.00568919
  H        2.61624014     -2.87927999      0.54615126
  H        4.32996377     -2.73283556      0.91290533
  O        6.09602859      0.91658811     -1.95996035
  O        6.27232179      0.93337469     -3.40431778
  H        5.42877873      1.32288688     -3.68836230
  O       -0.16332209     -1.42471698     -2.29035514
  H       -0.35640828     -2.27942909     -1.88005697
  C       10.61781154      2.17040496      3.46140759
  H       11.11925927      2.00912871      2.50244197
  H       10.27321753      3.21627421      3.45188905
  C       11.65053586      1.98492838      4.58539909
  H       11.16287160      2.08845640      5.56223806
  H       12.03471982      0.95624583      4.55237437
  C       12.82121368      2.98513275      4.54538475
  H       13.44675860      2.82734966      5.43662882
  H       12.41302064      4.00191945      4.63926389
  C       13.73742296      2.94172469      3.30371815
  H       13.11993847      3.12055845      2.41195194
  C       14.77835532      4.07058326      3.37475746
  H       15.43310880      3.94450682      4.24674092
  H       15.41363266      4.08342924      2.48174382
  H       14.29802236      5.05224111      3.45891437
  C       14.43005042      1.58043207      3.13298907
  H       15.04449274      1.34347576      4.01145406
  H       15.08989450      1.58415985      2.25794918
  H       13.71181409      0.76497783      2.99951587



