%Mem=256MB 
%NProc=12 

#P HF/6-31G* SCF(Conver=6) NoSymm Test 
   Pop=chelpg IOp(6/33=2) GFInput GFPrint 

MEP - Input generated by R.E.D.-III.x MOLECULE 

0 1 
  C        1.76094113     -1.24679749      0.00477603
  H        1.87831731     -1.17892318     -1.08331681
  C        3.15196657     -1.27357126      0.65554666
  H        3.73131070     -2.11048903      0.25363313
  H        3.01270722     -1.47344633      1.73030359
  C        3.91257399      0.02670098      0.47014578
  C        3.18066859      1.32001229      0.85094376
  C        1.74576405      1.26746905      0.23975051
  H        1.83250474      1.40437501     -0.84648428
  H        1.16161020      2.11462076      0.61522145
  C        0.97396713     -0.03464659      0.50131824
  H        0.77074393     -0.15409187      1.57604993
  H        0.00000000      0.00000000      0.00000000
  C        5.16787208      0.00000000     -0.00000000
  H        5.61468776     -0.95193797     -0.28270766
  C        6.04343072      1.20110192     -0.18582423
  H        7.02555775      1.00405473      0.26846440
  C        5.46249359      2.48384253      0.44341467
  H        5.68162839      2.39406597      1.51781393
  C        3.92464063      2.56546459      0.25436548
  H        3.75623589      2.52267802     -0.82902206
  C        3.35873305      3.91615790      0.75059374
  H        3.36880880      3.95110923      1.84524549
  H        2.30614304      4.00165563      0.45745492
  C        4.11434307      5.15034370      0.21680252
  H        3.98822210      5.21549886     -0.87365714
  H        3.65019128      6.04796268      0.63692735
  C        5.62205697      5.08137893      0.53562974
  C        6.14365802      3.75324497     -0.08576950
  H        5.88551730      3.81718531     -1.15368748
  C        7.67202714      3.87061258      0.00000000
  H        8.17648118      3.23532204     -0.73279078
  H        8.03035423      3.56402548      0.99094981
  C        7.93524474      5.38177768     -0.24385774
  H        8.59912533      5.79287040      0.52593108
  H        8.43794131      5.54488252     -1.20182399
  C        6.54621735      6.10770406     -0.20903185
  H        6.16622720      6.16533601     -1.24175307
  C        5.86273040      5.16003506      2.06116128
  H        5.41022469      4.32370941      2.59985212
  H        6.92859319      5.16396899      2.30814277
  H        5.43092164      6.07849630      2.47235067
  C        6.65270742      7.56658756      0.30835117
  H        7.09028488      7.52722079      1.31576315
  C        5.29357305      8.27963231      0.40888321
  H        4.77649607      8.27990432     -0.55911539
  H        5.41479249      9.32220665      0.71801045
  H        4.63349896      7.80711389      1.13933013
  C        3.08516663      1.39111705      2.39910444
  H        2.41720166      2.19603424      2.72064475
  H        2.69519873      0.46159186      2.82161042
  H        4.06776788      1.56116493      2.85028888
  O        6.47719387      1.31442441     -1.56311489
  O        5.29720706      1.43496347     -2.43039930
  H        5.62610335      2.11666535     -3.03799934
  O        1.05894152     -2.47691222      0.20591101
  H        0.90483477     -2.59351015      1.15396579
  C        7.61865329      8.37285752     -0.59775712
  H        8.56420073      7.82618732     -0.69149192
  H        7.18675178      8.40810103     -1.60925283
  C        7.95476872      9.81266155     -0.15985666
  H        8.59538088     10.24692870     -0.93778200
  H        7.04647074     10.42629437     -0.14656810
  C        8.67024339      9.90372369      1.19812708
  H        9.53176610      9.21973908      1.18695173
  H        8.00154129      9.53445354      1.98717452
  C        9.17079907     11.30669098      1.61711807
  H        9.63275745     11.17764462      2.60718493
  C       10.26099423     11.85497309      0.68135515
  H        9.86633818     12.07593822     -0.31698927
  H       10.68154908     12.78601580      1.07823973
  H       11.08392284     11.13985400      0.56539186
  C        8.02494623     12.31888579      1.78259981
  H        7.54889445     12.55081640      0.82288797
  H        8.39536351     13.26231481      2.19962690
  H        7.24961457     11.93759255      2.45763317



