%Mem=256MB 
%NProc=12 

#P HF/6-31G* SCF(Conver=6) NoSymm Test 
   Pop=chelpg IOp(6/33=2) GFInput GFPrint 

MEP - Input generated by R.E.D.-III.x MOLECULE 

0 1 
  C       -0.96371798      2.00260851      1.69004333
  H       -0.98169770      1.02272290      2.18271399
  C        0.38857886      2.67619496      1.97236299
  H        0.54039825      2.75943648      3.05301982
  H        0.33816385      3.70450147      1.58108101
  C        1.54895911      1.93462830      1.33446627
  C        1.42883019      1.62514460     -0.16313584
  C        0.01621986      1.01482194     -0.42028216
  H        0.00000000      0.00000000      0.00000000
  H       -0.14100553      0.90681956     -1.49886558
  C       -1.15173856      1.80844161      0.18550065
  H       -1.23831019      2.79398406     -0.29550332
  H       -2.09662023      1.28522236      0.00000000
  C        2.61028977      1.58767141      2.07899394
  H        2.61934433      1.84131216      3.13743427
  C        3.81580306      0.85688967      1.56218723
  H        4.73037351      1.28718001      1.98963184
  C        3.90399538      0.87164272      0.02533694
  H        4.21047345      1.89551441     -0.23034903
  C        2.51416355      0.57931479     -0.60188810
  H        2.19474146     -0.38481801     -0.17971742
  C        2.59566815      0.39199797     -2.13672827
  H        2.75516084      1.35929160     -2.62376513
  H        1.63339320      0.02272206     -2.50966922
  C        3.70557198     -0.57271182     -2.60159052
  H        3.47830407     -1.59065386     -2.25485290
  H        3.70277883     -0.60659499     -3.69713698
  C        5.08468629     -0.15619794     -2.05488265
  C        4.95556443     -0.11455558     -0.50480993
  H        4.60618800     -1.11479594     -0.21602049
  C        6.40384501     -0.00000000     -0.00000000
  H        6.51187952     -0.38559664      1.01763000
  H        6.73155309      1.04737154      0.01572876
  C        7.22064406     -0.82252604     -1.03798908
  H        8.05424280     -0.23186285     -1.43123048
  H        7.66449368     -1.71776309     -0.58925391
  C        6.22536261     -1.22437576     -2.17204199
  H        5.75140917     -2.16271650     -1.84667502
  C        5.50509584      1.20976495     -2.64472374
  H        4.86196009      2.02386923     -2.30018330
  H        6.53112875      1.47657514     -2.37845232
  H        5.44199989      1.19477461     -3.73682624
  C        6.92749662     -1.60302398     -3.50899517
  H        7.65682783     -2.37107220     -3.20252187
  C        7.74396676     -0.49630642     -4.20654502
  H        7.10367224      0.20482493     -4.75055089
  H        8.43576292     -0.93453328     -4.93280793
  H        8.34826872      0.08179346     -3.50153473
  C        1.57052235      2.95882726     -0.94701907
  H        1.29883686      2.83247348     -1.99917930
  H        0.92213723      3.73811717     -0.53955192
  H        2.59609775      3.33810103     -0.90156294
  O        3.79165286     -0.54016273      1.96597980
  O        3.96362588     -0.58456109      3.41033204
  H        3.07180839     -0.84543328      3.69416498
  O       -2.04700895      2.71568737      2.29218771
  H       -2.10838613      3.59020352      1.88277713
  C        5.96735566     -2.29650017     -4.50196956
  H        5.31592878     -2.98319811     -3.94367424
  H        5.30336099     -1.54773659     -4.95521479
  C        6.65827893     -3.09018194     -5.62312318
  H        7.25880906     -2.41260673     -6.24140942
  H        7.36131863     -3.80244457     -5.16993761
  C        5.65245701     -3.84119354     -6.51052122
  H        4.93889366     -3.11410489     -6.92492008
  H        5.06077234     -4.51690093     -5.87600854
  C        6.23952660     -4.66440941     -7.68081212
  H        5.37817324     -5.12671040     -8.18548357
  C        6.95475869     -3.78818843     -8.72261500
  H        7.86658654     -3.33686858     -8.31475741
  H        7.24755996     -4.38191676     -9.59611856
  H        6.30720045     -2.97578764     -9.07309327
  C        7.14939242     -5.80814504     -7.20271916
  H        8.06812605     -5.42807817     -6.74130305
  H        7.44603372     -6.44725132     -8.04223475
  H        6.64150080     -6.44046603     -6.46493413



