%Mem=256MB 
%NProc=12 

#P HF/6-31G* SCF(Conver=6) NoSymm Test 
   Pop=chelpg IOp(6/33=2) GFInput GFPrint 

MEP - Input generated by R.E.D.-III.x MOLECULE 

0 1 
  C        1.75819302     -1.24930414      0.05057645
  H        1.88302030     -1.20498450     -1.03830891
  C        3.14654735     -1.26395016      0.70983924
  H        3.72596724     -2.11114780      0.32993136
  H        3.00299825     -1.43844940      1.78779876
  C        3.90531660      0.03190493      0.49025997
  C        3.17343693      1.32905446      0.85690492
  C        1.74411339      1.27177917      0.23432729
  H        1.83957952      1.39099186     -0.85351936
  H        1.15920033      2.12678980      0.59023584
  C        0.96816304     -0.02492786      0.51283069
  H        0.75254727     -0.12168925      1.58721493
  H        0.00000000      0.00000000      0.00000000
  C        5.15418110     -0.00000000     -0.00000000
  H        5.60437354     -0.96192332     -0.23820654
  C        6.00283517      1.21122933     -0.25854374
  H        7.03615196      1.02384426      0.05984024
  C        5.46466621      2.47274377      0.44038789
  H        5.70442581      2.33282560      1.50393689
  C        3.92566161      2.57521702      0.26942985
  H        3.74526426      2.55512844     -0.81540735
  C        3.37537479      3.92363743      0.79234247
  H        3.38269161      3.93024458      1.88700074
  H        2.32433921      4.02692551      0.49875285
  C        4.14662667      5.16431596      0.29688174
  H        4.01973630      5.26799382     -0.79017228
  H        3.69602467      6.05330270      0.74984636
  C        5.65354210      5.06271266      0.60975564
  C        6.15118883      3.75217950     -0.06128565
  H        5.87934539      3.85070849     -1.12119902
  C        7.68275777      3.84087046      0.00000000
  H        8.15727413      3.24109697     -0.78157973
  H        8.05940827      3.47164074      0.96255441
  C        7.96739069      5.36021368     -0.16141117
  H        8.61995690      5.72057800      0.64265128
  H        8.48979968      5.57258956     -1.09937081
  C        6.58766249      6.09625497     -0.11068874
  H        6.20609984      6.17277453     -1.13938488
  C        5.90036905      5.08835971      2.13512523
  H        5.43087175      4.24594989      2.64965700
  H        6.96701251      5.05909071      2.37729799
  H        5.49077968      6.00290374      2.57731763
  C        6.70492973      7.53675342      0.44604880
  H        7.09266752      7.46083970      1.47253727
  C        5.36077292      8.28563751      0.52088326
  H        4.82383939      8.25937637     -0.43394989
  H        5.52330110      9.33840448      0.78091536
  H        4.69861744      7.86323853      1.28105467
  C        3.06523590      1.40365555      2.40482908
  H        2.38255298      2.19904755      2.71805597
  H        2.68696690      0.47060972      2.82918070
  H        4.04196580      1.59119598      2.86157471
  O        6.05955673      1.51409383     -1.67997523
  O        6.79901998      0.44229206     -2.32971276
  H        6.08489121     -0.01079633     -2.80789372
  O        1.05381218     -2.47388864      0.27130065
  H        0.88450422     -2.56787412      1.21927928
  C        7.75120966      8.38176051     -0.32927661
  H        7.83927824      9.35063120      0.18311267
  H        8.73753625      7.90930821     -0.24140993
  C        7.46198596      8.64272112     -1.81711354
  H        7.40648984      7.68853251     -2.35507490
  H        6.47877685      9.11660350     -1.92419612
  C        8.53640056      9.53449860     -2.46121931
  H        9.51796641      9.05868120     -2.32134282
  H        8.58036827     10.48458191     -1.90905060
  C        8.36284129      9.85427305     -3.96432424
  H        9.21214497     10.49919989     -4.23473790
  C        8.44883957      8.60091856     -4.85117236
  H        7.59844883      7.92917759     -4.68673771
  H        8.44822831      8.87374952     -5.91270276
  H        9.36594365      8.03380366     -4.65287385
  C        7.08060602     10.65099993     -4.25710494
  H        6.18148131     10.05154442     -4.07355442
  H        7.05110323     10.97079263     -5.30502533
  H        7.01715381     11.54946084     -3.63185185



