%Mem=256MB 
%NProc=12 

#P HF/6-31G* SCF(Conver=6) NoSymm Test 
   Pop=chelpg IOp(6/33=2) GFInput GFPrint 

MEP - Input generated by R.E.D.-III.x MOLECULE 

0 1 
  C        7.51687123      2.15124671     -0.05590752
  H        7.41524618      2.06828207      1.03314149
  C        6.76368994      0.98518048     -0.71561430
  H        7.15477368      0.03443255     -0.34020383
  H        6.98385057      1.01259410     -1.79442756
  C        5.26494374      1.06255936     -0.48956107
  C        4.58179153      2.38805025     -0.84900085
  C        5.41793586      3.54897164     -0.22662317
  H        5.27070789      3.53148027      0.86184316
  H        5.02355816      4.50851409     -0.57805541
  C        6.92626174      3.48525211     -0.51230888
  H        7.12037882      3.61461408     -1.58735707
  H        7.43997490      4.30659152      0.00000000
  C        4.60735591     -0.00000000      0.00000000
  H        5.16470565     -0.90542438      0.23299310
  C        3.12994278     -0.04462604      0.26404672
  H        2.71798771     -1.01023251     -0.05559366
  C        2.36932405      1.09983188     -0.42984029
  H        2.35502557      0.82536846     -1.49383560
  C        3.12958995      2.44227270     -0.25544287
  H        3.24980139      2.57670117      0.82960021
  C        2.30556513      3.64863595     -0.76850595
  H        2.28904032      3.65184171     -1.86303244
  H        2.80165077      4.58016987     -0.47261174
  C        0.84897566      3.68568567     -0.26264482
  H        0.84034400      3.84422282      0.82495044
  H        0.34571304      4.55067576     -0.70972111
  C        0.10448802      2.37455999     -0.58089777
  C        0.92446508      1.22659440      0.07555836
  H        0.99708287      1.49336619      1.13838784
  C        0.00000000      0.00000000      0.00000000
  H        0.23886836     -0.73809151      0.77076984
  H        0.09660521     -0.50410842     -0.97016082
  C       -1.42386230      0.60260242      0.17364584
  H       -2.08663151      0.26909411     -0.63116345
  H       -1.89136313      0.27798751      1.10954555
  C       -1.25629132      2.15522512      0.16488023
  H       -1.04490825      2.44773735      1.20448115
  C       -0.03599662      2.19520311     -2.11004028
  H        0.92989461      2.04253397     -2.59881088
  H       -0.66584585      1.34032532     -2.36968126
  H       -0.48486463      3.08410794     -2.56319500
  C       -2.56842217      2.91913599     -0.17986027
  H       -3.29448136      2.51336599      0.54396873
  C       -3.17549888      2.66975110     -1.57539541
  H       -2.65265155      3.22995361     -2.35654038
  H       -4.22350486      2.98485445     -1.59613512
  H       -3.15688750      1.61223679     -1.85405444
  C        4.57194761      2.52457171     -2.39647563
  H        4.27976028      3.53270255     -2.70490355
  H        5.55769883      2.33061155     -2.82586839
  H        3.87736193      1.81237575     -2.85259027
  O        2.85053380      0.07027049      1.68678035
  O        3.34584361     -1.13626674      2.33217384
  H        4.11862887     -0.78749637      2.80664592
  O        8.92623697      2.06747148     -0.28217555
  H        9.09424221      2.16054431     -1.23047705
  C       -2.46455164      4.43206552      0.11989200
  H       -1.90531710      4.57055451      1.05548593
  H       -1.87201733      4.92201646     -0.66491663
  C       -3.81266281      5.15908310      0.25002731
  H       -4.36747159      5.08203724     -0.69198044
  H       -4.42309593      4.65035888      1.01132406
  C       -3.65523424      6.63706959      0.63733989
  H       -3.08001999      7.15903326     -0.14299757
  H       -3.04728840      6.69569770      1.55161579
  C       -4.97162960      7.40363632      0.87910961
  H       -5.54866876      6.84317700      1.63097741
  C       -4.68431862      8.79924451      1.45545122
  H       -4.10540546      9.40348891      0.74509068
  H       -5.61288535      9.34019652      1.67071593
  H       -4.10837637      8.73709513      2.38591095
  C       -5.83294733      7.51386683     -0.38958067
  H       -5.28961049      8.04411729     -1.18271585
  H       -6.75456765      8.07221408     -0.18947042
  H       -6.12094555      6.53280926     -0.78016699



