%Mem=256MB 
%NProc=12 

#P HF/6-31G* SCF(Conver=6) NoSymm Test 
   Pop=chelpg IOp(6/33=2) GFInput GFPrint 

MEP - Input generated by R.E.D.-III.x MOLECULE 

0 1 
  C        1.75590290     -1.24472104      0.14248619
  H        1.88494588     -1.27631444     -0.94606294
  C        3.14267722     -1.21544772      0.80569272
  H        3.72260737     -2.08630847      0.48482711
  H        2.99655652     -1.31512888      1.89271234
  C        3.89898505      0.06264954      0.49874310
  C        3.17119937      1.38253708      0.77736942
  C        1.74298188      1.28480137      0.15664540
  H        1.84136595      1.33390479     -0.93615927
  H        1.15756914      2.16062501      0.45636485
  C        0.96593102      0.00908430      0.51757534
  H        0.74536565     -0.01529525      1.59515517
  H        0.00000000      0.00000000      0.00000000
  C        5.14298580      0.00000000     -0.00000000
  H        5.58801427     -0.97096199     -0.21003422
  C        5.97268954      1.19623924     -0.36170806
  H        7.02741450      1.01959286     -0.12402685
  C        5.46745538      2.48557934      0.31394559
  H        5.69209570      2.36232151      1.38368765
  C        3.93075396      2.58232889      0.10841088
  H        3.77948395      2.47118325     -0.97540571
  C        3.35092431      3.96236478      0.49567433
  H        3.29182586      4.05795043      1.58452353
  H        2.31967607      4.03657078      0.13164024
  C        4.15073677      5.16041210     -0.05116161
  H        4.09536050      5.17306315     -1.14902473
  H        3.67227739      6.08126742      0.29603692
  C        5.63224810      5.08745864      0.36679737
  C        6.18372628      3.74474440     -0.19654733
  H        6.00108666      3.78634970     -1.27982372
  C        7.70289969      3.85855142      0.00000000
  H        8.25632142      3.20441942     -0.67614110
  H        7.98250714      3.58075759      1.02456254
  C        7.99151175      5.36042983     -0.26771064
  H        8.61461804      5.78902691      0.52670337
  H        8.54740988      5.49129810     -1.20083508
  C        6.60848130      6.09533769     -0.33398012
  H        6.29615815      6.13690710     -1.38940135
  C        5.77508926      5.19141619      1.90363864
  H        5.30985092      4.35120221      2.42545283
  H        6.82324285      5.22258765      2.21525355
  H        5.29908627      6.10488978      2.27576314
  C        6.69191071      7.56162952      0.16556807
  H        7.07586534      7.54377658      1.19724362
  C        5.33253126      8.28299432      0.17905473
  H        4.86529293      8.25811221     -0.81359913
  H        5.44449009      9.33271624      0.46652929
  H        4.63349835      7.83310957      0.88741364
  C        3.05906599      1.56155726      2.31639856
  H        2.38683371      2.38584942      2.57200151
  H        2.66469789      0.66472779      2.80025479
  H        4.03619704      1.76570538      2.76480042
  O        5.87352588      1.23878611     -1.81709614
  O        7.10966790      1.79206198     -2.37728611
  H        7.37672299      1.04948102     -2.94259294
  O        1.04979521     -2.45043941      0.44667431
  H        0.86926840     -2.47252545      1.39698085
  C        7.71304318      8.35715528     -0.68616307
  H        8.63904901      7.77719365     -0.77583449
  H        7.31351694      8.45119157     -1.70635824
  C        8.08372437      9.74474130     -0.13533731
  H        7.21640385     10.41435462     -0.16013338
  H        8.35065533      9.63968493      0.92594389
  C        9.26795581     10.41322817     -0.85812907
  H       10.14965119      9.76353914     -0.75906634
  H        9.51890186     11.34684933     -0.33284479
  C        9.07130869     10.74114941     -2.35372096
  H        8.83769361      9.80628732     -2.88299051
  C        7.91100005     11.72049031     -2.59208757
  H        8.08450439     12.66622221     -2.06209107
  H        7.80732009     11.95208139     -3.65828826
  H        6.95288334     11.31718374     -2.24866769
  C       10.37500913     11.29465948     -2.95099933
  H       10.65997821     12.23589167     -2.46328932
  H       10.26834635     11.49546843     -4.02318673
  H       11.20429266     10.58947721     -2.82265067



