%Mem=256MB 
%NProc=12 

#P HF/6-31G* SCF(Conver=6) NoSymm Test 
   Pop=chelpg IOp(6/33=2) GFInput GFPrint 

MEP - Input generated by R.E.D.-III.x MOLECULE 

0 1 
  C        1.01218232     -0.82366220     -1.71761481
  H        1.11277338      0.15894549     -2.19398816
  C        2.26523782     -1.65764237     -2.03090640
  H        2.39335383     -1.73627528     -3.11491838
  H        2.08986529     -2.67892745     -1.65790816
  C        3.51439396     -1.07974227     -1.39404648
  C        3.45490589     -0.78958279      0.10984508
  C        2.13413605     -0.01068821      0.39844480
  H        2.24346152      1.00698676      0.00000000
  H        2.00367364      0.09101991      1.48111984
  C        0.86794175     -0.63612196     -0.20738927
  H        0.66075155     -1.61182980      0.25681341
  H        0.00000000      0.00000000      0.00000000
  C        4.59922151     -0.84058127     -2.14647759
  H        4.56248546     -1.03457795     -3.21696188
  C        5.87699823     -0.24982811     -1.62821384
  H        6.74106215     -0.70138557     -2.12787858
  C        6.00221364     -0.37514893     -0.09757640
  H        6.14699007     -1.44807052      0.09721703
  C        4.67136269      0.10087186      0.54736169
  H        4.48724816      1.09753240      0.12001454
  C        4.76762938      0.28919034      2.07938515
  H        4.75164297     -0.68220483      2.58368710
  H        3.87986632      0.82556675      2.43389773
  C        6.02103893      1.05487928      2.54550279
  H        5.97970475      2.09090517      2.18014814
  H        6.00706850      1.10780372      3.63881524
  C        7.31084352      0.39688784      2.01976956
  C        7.20637800      0.39325830      0.46636748
  H        7.06146359      1.44526730      0.18231044
  C        8.61744140      0.00000000      0.00000000
  H        8.82442274      0.34308715     -1.01525898
  H        8.73760440     -1.09121649      0.00592603
  C        9.54946483      0.66598160      1.04967457
  H       10.26680935     -0.05999689      1.45070384
  H       10.14295575      1.46992066      0.60289087
  C        8.63547697      1.21670747      2.19363081
  H        8.37396863      2.25659588      1.94918731
  C        7.47933404     -1.02213742      2.61091340
  H        6.68190409     -1.70209839      2.30046820
  H        8.42675060     -1.48052218      2.31247585
  H        7.46507575     -0.98821978      3.70580968
  C        9.35106695      1.23052798      3.56765447
  H        9.62194108      0.19152359      3.80604351
  C        8.47413958      1.74923193      4.72286580
  H        8.01875641      2.71785518      4.48830625
  H        9.07453383      1.87631265      5.63167357
  H        7.66451194      1.05592703      4.96433034
  C        3.43548134     -2.14611684      0.86663064
  H        3.20195426     -2.00629794      1.92615977
  H        2.68262804     -2.82548093      0.45965378
  H        4.40124635     -2.65545363      0.79366338
  O        5.80770534      1.13520675     -2.08286279
  O        7.16101742      1.63566862     -2.33989514
  H        7.06854073      1.87672860     -3.27565209
  O       -0.15922732     -1.38469313     -2.31591584
  H       -0.33032283     -2.24740113     -1.91265035
  C       10.69456776      2.00713661      3.52049916
  H       11.18270623      1.88439882      4.49806421
  H       11.36414277      1.53201058      2.79267288
  C       10.61128189      3.50928327      3.20307769
  H       10.14530989      3.65309985      2.22109251
  H        9.95901892      4.01075918      3.93101089
  C       11.99001630      4.18695643      3.22461742
  H       12.63448045      3.72674083      2.45974644
  H       12.46867396      3.97359217      4.19129972
  C       11.98170994      5.71473575      3.01353752
  H       11.30379732      6.14963843      3.76442947
  C       13.38250769      6.29983407      3.25409950
  H       14.10338770      5.89678132      2.53110056
  H       13.38207558      7.39076314      3.14846196
  H       13.74943030      6.05969507      4.25863946
  C       11.46378654      6.11647250      1.62287232
  H       12.09268566      5.68280522      0.83430005
  H       11.48077457      7.20530710      1.49856192
  H       10.43585728      5.78178211      1.45194937



