%Mem=256MB 
%NProc=12 

#P HF/6-31G* SCF(Conver=6) NoSymm Test 
   Pop=chelpg IOp(6/33=2) GFInput GFPrint 

MEP - Input generated by R.E.D.-III.x MOLECULE 

0 1 
  C       -0.96403831      2.00289994      1.68919391
  H       -0.98115306      1.02328958      2.18245734
  C        0.38806604      2.67738241      1.97050648
  H        0.54027942      2.76129686      3.05105878
  H        0.33691306      3.70546799      1.57869478
  C        1.54862711      1.93618579      1.33259209
  C        1.42788974      1.62565248     -0.16464158
  C        0.01545006      1.01455845     -0.42091827
  H        0.00000000      0.00000000      0.00000000
  H       -0.14220557      0.90580354     -1.49938520
  C       -1.15271186      1.80784493      0.18483265
  H       -1.23983191      2.79308928     -0.29669239
  H       -2.09742023      1.28408006      0.00000000
  C        2.61060127      1.59039698      2.07673460
  H        2.62014922      1.84487041      3.13497741
  C        3.81618566      0.85971432      1.55988227
  H        4.73085095      1.29082925      1.98624397
  C        3.90337143      0.87266914      0.02291982
  H        4.20986086      1.89619926     -0.23431317
  C        2.51311993      0.57975643     -0.60302862
  H        2.19424107     -0.38414872     -0.17989285
  C        2.59446979      0.39120448     -2.13769411
  H        2.75272036      1.35836894     -2.62540771
  H        1.63246685      0.02068127     -2.51013650
  C        3.70521916     -0.57263774     -2.60321608
  H        3.47876638     -1.59115506     -2.25762339
  H        3.70118173     -0.60507867     -3.69877857
  C        5.08475793     -0.15635910     -2.05688195
  C        4.95430146     -0.11411589     -0.50674210
  H        4.60411950     -1.11418778     -0.21820696
  C        6.40168387     -0.00000000     -0.00000000
  H        6.50777868     -0.38307969      1.01877537
  H        6.73048812      1.04707251      0.01332951
  C        7.21822188     -0.82600169     -1.03469989
  H        8.05555720     -0.23902541     -1.42555294
  H        7.65694720     -1.72276027     -0.58394123
  C        6.22582765     -1.22516915     -2.17260326
  H        5.75033585     -2.16406431     -1.85109698
  C        5.50599204      1.20864319     -2.64776144
  H        4.85980518      2.02279496     -2.30892781
  H        6.53023890      1.47776762     -2.37674997
  H        5.44887698      1.19028167     -3.74015384
  C        6.93750348     -1.60280739     -3.50539030
  H        7.66805970     -2.36171158     -3.18657100
  C        7.75215471     -0.49517570     -4.20219560
  H        7.11271144      0.20198199     -4.75231346
  H        8.44914420     -0.93298923     -4.92411166
  H        8.35123379      0.08700547     -3.49607331
  C        1.56891052      2.95893066     -0.94940984
  H        1.29639566      2.83206728     -2.00130012
  H        0.92089118      3.73851568     -0.54188518
  H        2.59449569      3.33828166     -0.90489133
  O        3.79286299     -0.53692819      1.96532156
  O        3.96669922     -0.57964569      3.40949736
  H        3.07523749     -0.84001208      3.69487527
  O       -2.04737011      2.71572440      2.29155654
  H       -2.10928890      3.59005823      1.88183729
  C        5.97853219     -2.29447704     -4.50215816
  H        5.35421939     -3.01234687     -3.95171551
  H        5.29061858     -1.54344486     -4.91117669
  C        6.63556748     -3.03384803     -5.68581619
  H        5.82856363     -3.38495852     -6.34122689
  H        7.22177249     -2.32697715     -6.28548509
  C        7.51184144     -4.22897115     -5.27569478
  H        6.92582920     -4.88087466     -4.61101251
  H        8.36071003     -3.87211428     -4.67741939
  C        8.07522240     -5.09346398     -6.42897829
  H        8.68057431     -5.87676527     -5.94915969
  C        6.97466937     -5.80622167     -7.23250521
  H        6.35999428     -5.09660244     -7.79816375
  H        7.41166934     -6.50571757     -7.95431727
  H        6.30794142     -6.37744177     -6.57581521
  C        9.01311669     -4.30356148     -7.35695202
  H        8.47054141     -3.53752317     -7.92289182
  H        9.49278509     -4.96846941     -8.08430206
  H        9.80622542     -3.80197703     -6.78990457



