%Mem=256MB 
%NProc=12 

#P HF/6-31G* SCF(Conver=6) NoSymm Test 
   Pop=chelpg IOp(6/33=2) GFInput GFPrint 

MEP - Input generated by R.E.D.-III.x MOLECULE 

0 1 
  C        7.50835070      2.15052634     -0.05269225
  H        7.40537025      2.06951429      1.03637847
  C        6.75577434      0.98338841     -0.71133113
  H        7.14567087      0.03328096     -0.33306474
  H        6.97817894      1.00817500     -1.78978498
  C        5.25656963      1.06168523     -0.48879482
  C        4.57480940      2.38705302     -0.85129212
  C        5.41008865      3.54842476     -0.22902696
  H        5.26119596      3.53225694      0.85922438
  H        5.01620585      4.50761018     -0.58208342
  C        6.91891900      3.48409028     -0.51208120
  H        7.11499357      3.61190927     -1.58694473
  H        7.43196417      4.30598789     -0.00000000
  C        4.59707032      0.00000000     -0.00000000
  H        5.15316086     -0.90558869      0.23539633
  C        3.11890687     -0.04357417      0.26013577
  H        2.70710037     -1.00870479     -0.06098917
  C        2.36045556      1.10214025     -0.43415172
  H        2.34434739      0.82861915     -1.49864531
  C        3.12204597      2.44246980     -0.25981894
  H        3.24083467      2.57835288      0.82518253
  C        2.29680317      3.64509111     -0.77617507
  H        2.28412137      3.64685025     -1.87086713
  H        2.78860464      4.57897754     -0.48029511
  C        0.83783958      3.68081778     -0.27669385
  H        0.82378733      3.83659148      0.81143114
  H        0.34455163      4.55048416     -0.72194694
  C        0.09111176      2.36868600     -0.59523390
  C        0.91458898      1.22977470      0.06930091
  H        0.98165500      1.50458272      1.13095322
  C        0.00000000      0.00000000      0.00000000
  H        0.24915112     -0.73924513      0.76631605
  H        0.08939720     -0.50085403     -0.97254474
  C       -1.42198512      0.59473534      0.19125776
  H       -2.10340912      0.23793798     -0.59038315
  H       -1.85559870      0.28081572      1.14515538
  C       -1.28706734      2.15496088      0.12433603
  H       -1.15337851      2.52777673      1.15225735
  C       -0.06782135      2.18010510     -2.12117118
  H        0.89340648      2.10573729     -2.63637394
  H       -0.63378744      1.27556189     -2.36355013
  H       -0.60386891      3.02693516     -2.56249668
  C       -2.56278997      2.83779829     -0.43545617
  H       -2.74187036      2.42867181     -1.43977477
  C       -2.43143585      4.36508261     -0.56212799
  H       -2.18168395      4.82039997      0.40468674
  H       -3.36648150      4.81664279     -0.90737039
  H       -1.65751573      4.65386518     -1.27651443
  C        4.56793444      2.52113685     -2.39893438
  H        4.27656970      3.52879016     -2.70975995
  H        5.55459677      2.32645561     -2.82596758
  H        3.87431480      1.80810302     -2.85528320
  O        2.83629492      0.07104210      1.68219680
  O        3.32642784     -1.13757539      2.32777120
  H        4.09764815     -0.79108410      2.80640137
  O        8.91799540      2.06583770     -0.27690843
  H        9.08731124      2.15657855     -1.22520154
  C       -3.78105689      2.47166004      0.45110973
  H       -3.83788956      1.38148283      0.55027357
  H       -3.59347493      2.85842711      1.46396527
  C       -5.16463451      2.96995521     -0.01127180
  H       -5.88918703      2.67192135      0.75658987
  H       -5.19114986      4.06746935     -0.03284951
  C       -5.61480322      2.42765083     -1.37629338
  H       -5.58172800      1.32699894     -1.35945974
  H       -4.89482095      2.74007577     -2.14411472
  C       -7.02047932      2.87594789     -1.82894729
  H       -7.05308123      3.97512190     -1.77129240
  C       -7.26793342      2.47733746     -3.29274884
  H       -7.23911378      1.38638669     -3.41038282
  H       -8.24892193      2.82195299     -3.63936424
  H       -6.50797273      2.90375587     -3.95758935
  C       -8.13749348      2.32361490     -0.92836961
  H       -8.13486951      1.22578045     -0.93681519
  H       -9.12169430      2.65508408     -1.27857702
  H       -8.03198249      2.64995365      0.11095538



