%Mem=256MB 
%NProc=12 

#P HF/6-31G* SCF(Conver=6) NoSymm Test 
   Pop=chelpg IOp(6/33=2) GFInput GFPrint 

MEP - Input generated by R.E.D.-III.x MOLECULE 

0 1 
  O        0.00000000      0.00000000      0.00000000
  H        0.96762850      0.00000000      0.00000000
  O        1.65347932     -2.73033339      6.41419488
  H        2.59185564     -2.50170872      6.47198048
  C       -1.20569966      4.10411072      1.59349171
  C       -1.29562389      2.60820424      1.17178195
  H       -2.26488093      2.25935551      1.56893190
  C       -0.24134567      1.68097228      1.80282043
  H        0.76251673      1.98363250      1.47017642
  C       -0.32322180      1.77861036      3.35164269
  H       -1.30361693      1.35442493      3.62442509
  C       -2.39775191      4.69583223      0.76226265
  H       -3.31587250      4.37159475      1.27802329
  C       -1.36303240      4.14080372      3.12689442
  H       -2.37578618      3.79847155      3.38457808
  H       -1.26965812      5.15715663      3.52187513
  C        0.73851978      0.88850604      4.08678163
  C       -1.44686711      2.65643463     -0.35635162
  H       -1.90348476      1.74978198     -0.75989368
  H       -0.46755655      2.74311248     -0.83883574
  C       -0.32539538      3.24745253      3.83292967
  H        0.66858594      3.68517299      3.69024232
  H       -0.51725873      3.28059962      4.91113528
  C       -2.30978511      3.92363204     -0.59786575
  H       -1.85911902      4.55972552     -1.36926801
  H       -3.30755217      3.66004387     -0.96171608
  C       -0.44266747      0.22027464      1.35422589
  H       -1.52028362      0.00862150      1.30514098
  C       -2.51648152      6.23095238      0.56887176
  H       -1.63540164      6.56103888      0.00000000
  C        0.12733204      4.75792494      1.16273939
  H        0.99779826      4.23165831      1.56326337
  H        0.23769363      4.78142087      0.07458051
  H        0.18404751      5.79196039      1.51854912
  C        0.77462225     -0.50733757      3.45491774
  C        0.31307540      0.73609421      5.58086364
  H       -0.75626177      0.48511722      5.60934465
  H        0.41935709      1.69961455      6.09034352
  C        0.21537668     -0.77697766      2.26617242
  H        0.24202917     -1.79529100      1.87836028
  C        2.15990512      1.50799596      4.01286190
  H        2.22658465      2.42542340      4.60572154
  H        2.91850411      0.82086258      4.39673541
  H        2.43483944      1.74724515      2.98101563
  C        1.47016185     -1.60504387      4.23790778
  H        1.33895651     -2.56918368      3.73696677
  H        2.55442050     -1.40988431      4.26902723
  C        1.08079146     -0.33683892      6.36846048
  H        2.14244833     -0.06254330      6.45828926
  H        0.68743227     -0.40476163      7.38909473
  C       -3.77521905      6.55329260     -0.27714553
  H       -3.75372429      5.95493783     -1.19392077
  H       -4.65910253      6.21069545      0.28155212
  C        0.97511283     -1.70155384      5.68858336
  H       -0.07382902     -2.02212780      5.68640427
  C       -2.54541251      7.01379137      1.89283892
  H       -3.36709008      6.67128531      2.53466618
  H       -2.68786263      8.08441681      1.71806889
  H       -1.61573012      6.90613623      2.45564616
  C       -3.99662021      8.02949855     -0.66396960
  H       -4.93452287      8.08976158     -1.23074459
  H       -4.16811578      8.63001700      0.23774681
  C       -2.86733722      8.69363670     -1.47453939
  H       -1.95386599      8.72384225     -0.86507103
  H       -3.14195323      9.74436074     -1.65051560
  C       -2.52283854      8.05227689     -2.83553727
  H       -2.23764746      7.00482997     -2.66087770
  C       -1.31166875      8.75992641     -3.46431066
  H       -1.53762449      9.81452343     -3.66827946
  H       -1.02525824      8.29236158     -4.41330075
  H       -0.44096339      8.72950455     -2.79906618
  C       -3.71416543      8.05874078     -3.80674077
  H       -4.05556168      9.08473301     -3.99679178
  H       -3.43533868      7.61807146     -4.77065562
  H       -4.56617435      7.49051190     -3.41988752



