%Mem=256MB 
%NProc=12 

#P HF/6-31G* SCF(Conver=6) NoSymm Test 
   Pop=chelpg IOp(6/33=2) GFInput GFPrint 

MEP - Input generated by R.E.D.-III.x MOLECULE 

0 1 
  O        6.10051932      3.75789292      0.00000000
  H        5.83388507      3.76659890     -0.93013249
  O        0.00000000      0.00000000      0.00000000
  H       -0.10904555     -0.16891672     -0.94643324
  C        8.82443610      0.12137897      0.42841911
  C        7.89573365      1.31302766      0.80181031
  H        7.67597800      1.17536486      1.87487139
  C        6.52361695      1.31991976      0.10461911
  H        6.66227583      1.43243497     -0.98071585
  C        5.78441486     -0.01633117      0.39542785
  H        5.57004980     -0.00705736      1.47688075
  C       10.07799151      0.47036768      1.30371591
  H        9.78913170      0.23805254      2.33953917
  C        8.06939330     -1.16672570      0.81010488
  H        7.94319182     -1.19031742      1.90225050
  H        8.63705354     -2.06399196      0.54357229
  C        4.38630255     -0.11604571     -0.30867350
  C        8.80605729      2.54817186      0.70140024
  H        8.44225090      3.38339509      1.30433582
  H        8.84801070      2.91492407     -0.32960145
  C        6.68760941     -1.24344710      0.13300849
  H        6.83287803     -1.37315731     -0.94492873
  H        6.18221774     -2.15150003      0.48007545
  C       10.19107375      2.02414993      1.16923674
  H       10.96971037      2.28795750      0.44356728
  H       10.49235552      2.47765876      2.11893586
  C        5.66394478      2.50974940      0.57409855
  H        5.82139257      2.65880465      1.65182720
  C       11.42289813     -0.24787793      1.02930290
  H       11.72102141     -0.00000000      0.00000000
  C        9.19853230      0.11179824     -1.07139077
  H        8.31902435      0.07718708     -1.71964883
  H        9.77298538      0.99851070     -1.35525402
  H        9.81029895     -0.76429999     -1.31146274
  C        3.61097090      1.19146155     -0.11257349
  C        3.57304296     -1.26985760      0.35740455
  H        3.65351988     -1.16179866      1.44789446
  H        4.03230363     -2.23168406      0.10616062
  C        4.19610382      2.32162899      0.31048412
  H        3.59096120      3.21505498      0.46436304
  C        4.52607163     -0.39152540     -1.82990020
  H        4.91532183     -1.39664804     -2.01920099
  H        3.56310371     -0.31752582     -2.34189027
  H        5.19873029      0.33014779     -2.30345234
  C        2.12331011      1.16637010     -0.40914017
  H        1.66566935      2.12131437     -0.13281044
  H        1.96212042      1.04015387     -1.49208203
  C        2.08265179     -1.31202179     -0.01374377
  H        1.95862562     -1.53174834     -1.08461776
  H        1.58406688     -2.12123699      0.53180448
  C       12.56815684      0.28915265      1.93105829
  H       13.49801637     -0.20399093      1.61181953
  H       12.71235211      1.35601639      1.72721657
  C        1.39717290      0.01643366      0.30452111
  H        1.43360604      0.18969038      1.38697149
  C       11.34161776     -1.78348262      1.12131172
  H       10.88507912     -2.11587904      2.06016970
  H       12.34446294     -2.22351933      1.06623432
  H       10.75586375     -2.21105882      0.30358363
  C       12.40290469      0.07525594      3.44547761
  H       11.53903065      0.64198678      3.81427287
  H       12.17423468     -0.97969859      3.64207547
  C       13.65301389      0.43996438      4.26909660
  H       14.49283337     -0.17527172      3.91470540
  H       13.48284974      0.14536270      5.31542739
  C       14.09321477      1.91946945      4.25435846
  H       14.26267144      2.21973571      3.21047883
  C       15.42652002      2.08273525      5.00180030
  H       15.32106122      1.79716484      6.05646120
  H       15.77500386      3.12146538      4.97264901
  H       16.20989356      1.45350829      4.56381016
  C       13.02671358      2.85378791      4.84751373
  H       12.80856222      2.58318989      5.88893807
  H       13.36980370      3.89461247      4.84013102
  H       12.08583858      2.81444224      4.28933843



