%Mem=256MB 
%NProc=12 

#P HF/6-31G* SCF(Conver=6) NoSymm Test 
   Pop=chelpg IOp(6/33=2) GFInput GFPrint 

MEP - Input generated by R.E.D.-III.x MOLECULE 

0 1 
  O        6.10703120      3.74561446     -0.00000000
  H        5.69617043      3.99769886     -0.83902528
  O        0.00000000      0.00000000      0.00000000
  H       -0.26586064      0.08198272     -0.92669305
  C        8.77464377      0.17549077     -1.00164005
  C        7.94970500      1.21838408     -0.18902277
  H        7.90305776      0.81089778      0.83538695
  C        6.48177482      1.37833123     -0.62322136
  H        6.43833795      1.77897883     -1.64643692
  C        5.77059506     -0.00448440     -0.57957937
  H        5.73849533     -0.28734301      0.48559739
  C       10.14727740      0.31063685     -0.25490696
  H        9.95266112     -0.10780186      0.74244665
  C        8.05985134     -1.18033055     -0.85546858
  H        8.10124288     -1.49477944      0.19680018
  H        8.56343616     -1.96175830     -1.43677806
  C        4.27306298      0.05557890     -1.04325646
  C        8.86746989      2.45425016     -0.12558195
  H        8.63347125      3.10135987      0.72283692
  H        8.74386753      3.07195732     -1.02141760
  C        6.58820317     -1.09983118     -1.30362362
  H        6.55851496     -0.93188101     -2.38546759
  H        6.12023799     -2.07628459     -1.13667574
  C       10.29836496      1.85099793     -0.05012896
  H       10.94553796      2.29145419     -0.81567975
  H       10.77955759      2.05904408      0.91208714
  C        5.73883274      2.38071795      0.28138090
  H        6.07195774      2.23829376      1.31926988
  C       11.46655738     -0.37149015     -0.71850253
  H       12.21301381      0.00000000      0.00000000
  C        8.87611970      0.56499518     -2.49500805
  H        7.89686563      0.78344275     -2.92902823
  H        9.49995128      1.44863234     -2.65011786
  H        9.30962472     -0.25154929     -3.07963504
  C        3.57156623      1.25024362     -0.38752303
  C        3.55258481     -1.24778935     -0.57519281
  H        3.81328422     -1.42496387      0.47739017
  H        3.94126381     -2.10215703     -1.13926106
  C        4.24376149      2.24009839      0.21812430
  H        3.69271108      3.04890129      0.69796617
  C        4.15350867      0.18888481     -2.58512457
  H        4.48263983     -0.72400538     -3.09094463
  H        3.12136840      0.37382055     -2.89385300
  H        4.75569653      1.02259108     -2.95904264
  C        2.05531742      1.27437775     -0.43404509
  H        1.67160695      2.11547251      0.15163817
  H        1.71717865      1.43083765     -1.47125951
  C        2.02087485     -1.22181040     -0.69435109
  H        1.71788100     -1.15856211     -1.75009511
  H        1.59950853     -2.15473257     -0.30300618
  C       11.47195910     -1.91587098     -0.60363140
  H       10.74068583     -2.32985825     -1.30969075
  H       12.45251532     -2.26737173     -0.95643688
  C        1.42813270     -0.03556992      0.06551603
  H        1.64472832     -0.14874752      1.13477621
  C       12.00308990      0.02286821     -2.10956678
  H       11.45864097     -0.47451239     -2.91771413
  H       13.05359605     -0.27736662     -2.19609191
  H       11.95789123      1.10083792     -2.28970211
  C       11.22378683     -2.53160414      0.78737364
  H       10.22620730     -2.25671956      1.14814695
  H       11.20671814     -3.62190010      0.66357222
  C       12.28208730     -2.15545898      1.83787841
  H       12.24855471     -1.07256931      2.01692194
  H       13.27888682     -2.36263718      1.42113845
  C       12.17168135     -2.86728391      3.20742218
  H       12.98813581     -2.46207606      3.82336359
  C       12.39417742     -4.38580814      3.10995167
  H       11.58401162     -4.88100768      2.56243056
  H       12.43594300     -4.83732612      4.10776962
  H       13.33543593     -4.61908168      2.59843179
  C       10.85569665     -2.54783854      3.93599985
  H        9.99144334     -2.97520276      3.41446410
  H       10.86161060     -2.96125057      4.95101550
  H       10.69663411     -1.46609271      4.01745655



