%Mem=256MB 
%NProc=12 

#P HF/6-31G* SCF(Conver=6) NoSymm Test 
   Pop=chelpg IOp(6/33=2) GFInput GFPrint 

MEP - Input generated by R.E.D.-III.x MOLECULE 

0 1 
  O        0.00000000      0.00000000      0.00000000
  H        0.96763851      0.00000000      0.00000000
  O        1.60116291     -0.99446845      6.91450690
  H        2.53830896     -0.75394706      6.92325041
  C       -1.16902102      4.37280417      0.48934975
  C       -1.27464258      2.82547914      0.44647719
  H       -2.24990748      2.59222935      0.90734766
  C       -0.23679996      2.08736689      1.30874035
  H        0.77449025      2.29002279      0.92667874
  C       -0.34438882      2.58019569      2.78207326
  H       -1.32745409      2.22962605      3.13734426
  C       -2.34441788      4.74316149     -0.46844848
  H       -3.24560171      4.46632166      0.09797021
  C       -1.37059541      4.81126964      1.94925424
  H       -2.39329805      4.55097479      2.25830408
  H       -1.27906316      5.90058536      2.05544511
  C        0.70852013      1.90981316      3.73328872
  C       -1.41764900      2.50157507     -1.05422420
  H       -1.91576049      1.54413985     -1.22398240
  H       -0.43414940      2.41889874     -1.52855919
  C       -0.36179480      4.12567857      2.89127858
  H        0.63751321      4.52340303      2.68650375
  H       -0.59493229      4.41459864      3.92195480
  C       -2.21829727      3.70979740     -1.63083683
  H       -1.69486654      4.13654843     -2.49103163
  H       -3.20618974      3.40488300     -1.99195835
  C       -0.44320581      0.56173668      1.25108550
  H       -1.52175297      0.34886706      1.25528363
  C       -2.54672028      6.23786695     -0.85434950
  H       -2.19267043      6.83531912     -0.00000000
  C        0.18797534      4.88830652     -0.03901835
  H        1.02861299      4.51865239      0.55390071
  H        0.36971323      4.58683732     -1.07419423
  H        0.22367281      5.98240493      0.00073286
  C        0.75476009      0.39900076      3.47768471
  C        0.26428340      2.13979834      5.21191097
  H       -0.80509011      1.89980964      5.29046587
  H        0.36338190      3.20142053      5.46137685
  C        0.20913235     -0.16786175      2.39163948
  H        0.24176631     -1.25129288      2.27686473
  C        2.13049788      2.49560916      3.52204247
  H        2.18966939      3.53346454      3.86394184
  H        2.88418148      1.93084227      4.07687545
  H        2.41857336      2.46637616      2.46675323
  C        1.44385538     -0.45953041      4.52167603
  H        1.32189201     -1.52003815      4.28054128
  H        2.52701808     -0.25625385      4.51491765
  C        1.02336568      1.30562425      6.25552917
  H        2.08309581      1.59962147      6.28617388
  H        0.61633731      1.49685287      7.25492244
  C       -1.76659746      6.71814230     -2.10179860
  H       -0.76914367      6.26647937     -2.12391792
  H       -2.28161369      6.35631215     -3.00133115
  C        0.93000204     -0.18752789      5.94318959
  H       -0.11801780     -0.50422975      6.00953088
  C       -4.05159770      6.53540874     -1.01712070
  H       -4.48526190      5.92223200     -1.81702083
  H       -4.23695732      7.58498326     -1.26694729
  H       -4.60035696      6.31506905     -0.09471977
  C       -1.59512706      8.24502580     -2.18021161
  H       -2.57440374      8.73675702     -2.22305209
  H       -1.12951217      8.59148655     -1.24662256
  C       -0.72127230      8.72728689     -3.35272063
  H        0.27518885      8.27227404     -3.25543409
  H       -0.56924393      9.81247517     -3.25397371
  C       -1.24778488      8.44458300     -4.77611965
  H       -1.38412016      7.35904598     -4.88414533
  C       -0.21009094      8.88378852     -5.82167040
  H       -0.03331188      9.96575555     -5.76669359
  H       -0.54757365      8.65395964     -6.83876189
  H        0.75162237      8.38149485     -5.66582593
  C       -2.60239793      9.11892126     -5.04536313
  H       -2.52583190     10.20759953     -4.92577684
  H       -2.94145465      8.92074978     -6.06852487
  H       -3.38355670      8.76326050     -4.36578530



