%Mem=256MB 
%NProc=12 

#P HF/6-31G* SCF(Conver=6) NoSymm Test 
   Pop=chelpg IOp(6/33=2) GFInput GFPrint 

MEP - Input generated by R.E.D.-III.x MOLECULE 

0 1 
  O        6.11670924      3.72969100      0.00000000
  H        5.84874226      3.74162885     -0.92970546
  O        0.00000000      0.00000000      0.00000000
  H       -0.11091541     -0.16603200     -0.94672665
  C        8.82857480      0.08101591      0.41564278
  C        7.90281070      1.27424384      0.79385794
  H        7.68378945      1.13431162      1.86684995
  C        6.52992630      1.28936999      0.09770866
  H        6.66827107      1.40473337     -0.98741499
  C        5.78556300     -0.04447484      0.38413626
  H        5.57456987     -0.04020816      1.46625624
  C       10.08509467      0.41938195      1.29222075
  H        9.80714213      0.16844107      2.32852407
  C        8.06568540     -1.20549065      0.79012529
  H        7.93874757     -1.23355244      1.88207511
  H        8.62704614     -2.10534917      0.52025882
  C        4.38516418     -0.13587646     -0.31634991
  C        8.81704991      2.50518672      0.69593967
  H        8.45020333      3.34617256      1.28880747
  H        8.87216411      2.86393625     -0.33736893
  C        6.68421916     -1.27215079      0.11186027
  H        6.82946813     -1.39264377     -0.96716253
  H        6.17592492     -2.18168096      0.45083478
  C       10.19270663      1.97844233      1.18474434
  H       10.98840865      2.25833105      0.48382521
  H       10.46522497      2.41764406      2.14924557
  C        5.67613720      2.48178315      0.57171614
  H        5.83603025      2.62745926      1.64952433
  C       11.43530722     -0.29133838      1.01015461
  H       11.75598489     -0.00000000      0.00000000
  C        9.20355832      0.08007349     -1.08428693
  H        8.32422932      0.06020569     -1.73354264
  H        9.78736823      0.96337748     -1.35946594
  H        9.80689345     -0.79949954     -1.33214294
  C        3.61630803      1.17466862     -0.11571976
  C        3.56789642     -1.28670113      0.35013260
  H        3.65111765     -1.17990114      1.44052032
  H        4.02225108     -2.25044428      0.09719434
  C        4.20707592      2.30085653      0.30996286
  H        3.60622123      3.19657962      0.46724070
  C        4.51929051     -0.40948338     -1.83841356
  H        4.90298481     -1.41620916     -2.03039544
  H        3.55525625     -0.32997650     -2.34754682
  H        5.19421908      0.30957015     -2.31273706
  C        2.12811512      1.15724806     -0.41016867
  H        1.67544569      2.11391387     -0.13161075
  H        1.96478346      1.03356460     -1.49310546
  C        2.07656017     -1.32153380     -0.01818019
  H        1.94958693     -1.53949657     -1.08904887
  H        1.57526459     -2.12908766      0.52735189
  C       12.50683549      0.21102118      2.01208348
  H       12.53231954      1.30664908      1.99065563
  H       12.18060172     -0.06523638      3.02605106
  C        1.39763491      0.00963534      0.30279626
  H        1.43614832      0.18122012      1.38543953
  C       11.34038674     -1.82599800      1.05383543
  H       10.95259686     -2.16913309      2.02146965
  H       12.32161449     -2.28824440      0.90956316
  H       10.68654873     -2.22112858      0.27342595
  C       13.94981902     -0.29349388      1.80979050
  H       14.55375826      0.11406531      2.63036253
  H       13.98925671     -1.38293893      1.92505242
  C       14.57489466      0.11564870      0.46588765
  H       14.45365336      1.20159889      0.33897778
  H       14.01096907     -0.34897968     -0.35402940
  C       16.07031788     -0.23141496      0.27114224
  H       16.33060165      0.11612907     -0.73969235
  C       16.33606323     -1.74559365      0.31002022
  H       16.15816662     -2.16133400      1.30850196
  H       17.37653991     -1.96585413      0.04520182
  H       15.69142134     -2.28240939     -0.39601003
  C       16.98848814      0.51565278      1.25281851
  H       16.83920413      0.17917971      2.28518966
  H       18.04255820      0.34642080      1.00465152
  H       16.80812453      1.59669462      1.22366935



