%Mem=256MB 
%NProc=12 

#P HF/6-31G* SCF(Conver=6) NoSymm Test 
   Pop=chelpg IOp(6/33=2) GFInput GFPrint 

MEP - Input generated by R.E.D.-III.x MOLECULE 

0 1 
  O        6.10079354      3.75614710     -0.00000000
  H        5.68731087      4.00917151     -0.83744789
  O        0.00000000      0.00000000      0.00000000
  H       -0.26652103      0.08330111     -0.92638653
  C        8.77377651      0.19281201     -1.01166089
  C        7.94740956      1.23126831     -0.19457065
  H        7.90138957      0.81910919      0.82806185
  C        6.47912726      1.39068098     -0.62781639
  H        6.43475536      1.79356101     -1.65015051
  C        5.77000664      0.00689388     -0.58678811
  H        5.74022190     -0.27906198      0.47762400
  C       10.14584622      0.32590510     -0.26411166
  H        9.95322484     -0.10150732      0.72945043
  C        8.06095689     -1.16462627     -0.86959061
  H        8.10482644     -1.48300685      0.18145431
  H        8.56444434     -1.94290060     -1.45514167
  C        4.27156654      0.06528790     -1.04762215
  C        8.86357099      2.46757528     -0.12485614
  H        8.62597821      3.11260665      0.72415927
  H        8.74295488      3.08725325     -1.01976003
  C        6.58854967     -1.08485226     -1.31539408
  H        6.55755778     -0.91307482     -2.39660205
  H        6.12233795     -2.06265441     -1.15146246
  C       10.29438234      1.86485668     -0.04544652
  H       10.94622753      2.31347431     -0.80208530
  H       10.76847710      2.06427873      0.92208804
  C        5.73552319      2.39011532      0.27961098
  H        6.07038034      2.24648325      1.31678115
  C       11.46588575     -0.35112517     -0.73492540
  H       12.20896984      0.00000000      0.00000000
  C        8.87463992      0.58745937     -2.50355959
  H        7.89444667      0.80033127     -2.93837569
  H        9.49273808      1.47576481     -2.65512317
  H        9.31467446     -0.22451051     -3.08980132
  C        3.56916683      1.25718016     -0.38811066
  C        3.55438053     -1.24027228     -0.58084577
  H        3.81664912     -1.41861199      0.47113950
  H        3.94407732     -2.09295034     -1.14676591
  C        4.24062059      2.24692246      0.21851090
  H        3.68893102      3.05370715      0.70101101
  C        4.14878019      0.20170873     -2.58895714
  H        4.47970776     -0.70907333     -3.09738735
  H        3.11553291      0.38423875     -2.89550884
  H        4.74791991      1.03804678     -2.96194269
  C        2.05287789      1.27890540     -0.43248965
  H        1.66857648      2.11795465      0.15574056
  H        1.71320530      1.43744235     -1.46888092
  C        2.02244289     -1.21696708     -0.69820316
  H        1.71834070     -1.15213651     -1.75350938
  H        1.60320995     -2.15145109     -0.30830753
  C       11.47482366     -1.89558089     -0.63979720
  H       10.72349100     -2.31457802     -1.32235780
  H       12.44557366     -2.24167797     -1.02321896
  C        1.42822142     -0.03328925      0.06459236
  H        1.64560197     -0.14850263      1.13348138
  C       12.00916504      0.07009194     -2.11551348
  H       11.47057046     -0.41501284     -2.93481230
  H       13.06104735     -0.22530809     -2.20163663
  H       11.96135126      1.15068939     -2.27776721
  C       11.28281182     -2.49057808      0.76403089
  H       12.00436866     -2.02224180      1.44731268
  H       10.28721174     -2.23920579      1.14615680
  C       11.46631061     -4.01711470      0.77742140
  H       12.46818477     -4.25372277      0.39086244
  H       10.75554941     -4.46225699      0.06595289
  C       11.29353775     -4.72395330      2.14206969
  H       11.46556295     -5.79360262      1.95094927
  C        9.86831998     -4.59053090      2.70396958
  H        9.63784893     -3.55537705      2.98118559
  H        9.74520614     -5.20394845      3.60385513
  H        9.11895056     -4.91628927      1.97287876
  C       12.33904770     -4.27670506      3.17723936
  H       12.19571399     -3.23036419      3.47063487
  H       12.27065223     -4.88320619      4.08756043
  H       13.35782188     -4.37750767      2.78477481



