%Mem=256MB 
%NProc=12 

#P HF/6-31G* SCF(Conver=6) NoSymm Test 
   Pop=chelpg IOp(6/33=2) GFInput GFPrint 

MEP - Input generated by R.E.D.-III.x MOLECULE 

0 1 
  O        0.00000000      0.00000000      0.00000000
  H       -0.29556908      0.16020927      0.90735670
  O       -1.43602130      7.02146272      0.00000000
  H       -1.49325023      7.19800821      0.94959268
  C        4.52089615      0.52059046      0.13406408
  C        3.07978523      0.37870265     -0.42296005
  H        3.15558178      0.65869261     -1.48776481
  C        2.05993650      1.36046170      0.17827411
  H        1.94400416      1.16241984      1.25395412
  C        2.56207490      2.81971348     -0.03054808
  H        2.52854134      2.98819002     -1.11959584
  C        5.23258262     -0.59755491     -0.69016469
  H        5.24424408     -0.20367425     -1.71696786
  C        4.99997767      1.94817014     -0.17690619
  H        5.06451178      2.06936156     -1.26793042
  H        6.00927265      2.12575343      0.21812702
  C        1.60211680      3.89516156      0.58972019
  C        2.81504345     -1.14001925     -0.39355010
  H        2.05551726     -1.44051341     -1.11911079
  H        2.43590457     -1.44868456      0.58628660
  C        4.03901097      3.00645645      0.39902497
  H        4.11248426      2.99137736      1.49131993
  H        4.38533542      3.99817776      0.08810760
  C        4.21008224     -1.77623908     -0.68062513
  H        4.45655346     -2.51400239      0.08813264
  H        4.22149639     -2.31161689     -1.63590174
  C        0.67026850      1.18848243     -0.46415953
  H        0.79701916      1.00273867     -1.54027690
  C        6.71764545     -0.93168614     -0.36315551
  H        7.17839753     -0.00000000     -0.00000000
  C        4.59726101      0.25232415      1.65345746
  H        3.98849767      0.95576063      2.22743756
  H        4.25468740     -0.75300486      1.91318489
  H        5.62816505      0.35548945      2.00912525
  C        0.14938674      3.57086531      0.22306917
  C        1.95680415      5.28992422     -0.01476078
  H        2.05492972      5.17748309     -1.10336241
  H        2.93741801      5.60838194      0.35412478
  C       -0.22371943      2.38091843     -0.27024127
  H       -1.26533811      2.21575241     -0.54558091
  C        1.72556691      3.95367868      2.13605084
  H        2.69574572      4.35528898      2.44427558
  H        0.95757635      4.59484974      2.57642611
  H        1.60973724      2.96060759      2.58087749
  C       -0.87859943      4.66744752      0.42946164
  H       -1.85116794      4.35346755      0.03802228
  H       -1.01589451      4.85092473      1.50746658
  C        0.93063315      6.39902019      0.26465015
  H        0.88688048      6.62026937      1.34146764
  H        1.23705081      7.32595588     -0.23327136
  C        6.93667526     -2.00546225      0.72973794
  H        6.20192245     -1.88608744      1.53303783
  H        6.74945190     -2.99577968      0.29437560
  C       -0.46263820      5.99667678     -0.21773020
  H       -0.44408200      5.87166920     -1.30726018
  C        7.46063764     -1.32533343     -1.65647915
  H        7.00923103     -2.21741630     -2.10848669
  H        8.51666850     -1.54629943     -1.47113885
  H        7.41844940     -0.51954232     -2.39771502
  C        8.33820782     -1.97319576      1.36344865
  H        9.10556165     -2.15140322      0.60054111
  H        8.52588617     -0.95833613      1.74194246
  C        8.53049767     -2.95754892      2.53180167
  H        7.79285825     -2.72092941      3.31240111
  H        9.51738368     -2.77749922      2.98361500
  C        8.42213048     -4.46145383      2.20054900
  H        7.43011889     -4.64806121      1.76495957
  C        8.52337719     -5.29594298      3.48750802
  H        9.49963570     -5.15506983      3.96917181
  H        8.40761801     -6.36562409      3.27876622
  H        7.75133052     -5.00992179      4.21112032
  C        9.47801199     -4.91506044      1.17998251
  H       10.49127146     -4.72679753      1.55846095
  H        9.39287799     -5.98929855      0.98034282
  H        9.37795748     -4.39405844      0.22234185



