%Mem=256MB 
%NProc=12 

#P HF/6-31G* SCF(Conver=6) NoSymm Test 
   Pop=chelpg IOp(6/33=2) GFInput GFPrint 

MEP - Input generated by R.E.D.-III.x MOLECULE 

0 1 
  O        0.00000000      0.00000000      0.00000000
  H        0.96763606     -0.00000000      0.00000000
  O        1.59870136     -0.95798631      6.92013981
  H        2.53510230     -0.71460679      6.92934925
  C       -1.17215881      4.37613561      0.46722681
  C       -1.27265505      2.82785506      0.42879651
  H       -2.24908853      2.59297908      0.88590508
  C       -0.23703617      2.09446373      1.29797935
  H        0.77540801      2.29461886      0.91773947
  C       -0.34846637      2.59413099      2.76863975
  H       -1.33172775      2.24382153      3.12366474
  C       -2.34511473      4.73589086     -0.49765721
  H       -3.24266441      4.42892628      0.05854492
  C       -1.37957826      4.81793827      1.92501419
  H       -2.40168044      4.55368594      2.23292011
  H       -1.29328960      5.90791156      2.02826331
  C        0.70375198      1.93002702      3.72495902
  C       -1.40586151      2.49868763     -1.07217340
  H       -1.91468414      1.54668152     -1.24093820
  H       -0.41923528      2.40037894     -1.53672500
  C       -0.36886631      4.14000533      2.87026584
  H        0.62921544      4.53921277      2.66225704
  H       -0.60209739      4.43365164      3.89957922
  C       -2.18490515      3.71371244     -1.66460412
  H       -1.62885671      4.14538317     -2.50132040
  H       -3.16047293      3.41657082     -2.06376324
  C       -0.44325596      0.56853389      1.24793929
  H       -1.52177769      0.35556192      1.25335801
  C       -2.59618925      6.23142612     -0.86640539
  H       -2.26735515      6.82342106      0.00000000
  C        0.18568477      4.89065169     -0.05897172
  H        1.02809172      4.49635612      0.51534902
  H        0.35391869      4.61772023     -1.10431825
  H        0.23338436      5.98205418      0.01223690
  C        0.75351663      0.41825760      3.47608186
  C        0.25593918      2.16508203      5.20170324
  H       -0.81288490      1.92232855      5.27912646
  H        0.35146750      3.22806517      5.44677586
  C        0.20955126     -0.15463018      2.39237417
  H        0.24408271     -1.23853008      2.28270096
  C        2.12466728      2.51864970      3.51432800
  H        2.18001827      3.55805269      3.85214299
  H        2.87875398      1.95828243      4.07308289
  H        2.41500976      2.48607492      2.45975192
  C        1.44320899     -0.43400601      4.52474344
  H        1.32414266     -1.49584881      4.28806787
  H        2.52586844     -0.22819870      4.51858783
  C        1.01540799      1.33764551      6.25036337
  H        2.07426656      1.63473594      6.28173160
  H        0.60598417      1.53211413      7.24815606
  C       -1.82911247      6.74318396     -2.10940819
  H       -0.76847755      6.48687777     -2.02115902
  H       -2.19392932      6.20230352     -2.99232900
  C        0.92666696     -0.15715827      5.94438082
  H       -0.12057945     -0.47640559      6.01074816
  C       -4.11162223      6.47403228     -1.02489014
  H       -4.51347223      5.90394267     -1.87216655
  H       -4.34578902      7.52904101     -1.19588210
  H       -4.65456933      6.16076942     -0.12644668
  C       -1.95644654      8.25153249     -2.41661520
  H       -1.41430900      8.44866233     -3.35027451
  H       -3.00357434      8.49046891     -2.63862827
  C       -1.46626025      9.22677985     -1.32997987
  H       -2.04970067      9.07217037     -0.41224381
  H       -1.69846122     10.25056150     -1.65931514
  C        0.03366287      9.17034143     -0.97080054
  H        0.27228588      8.14824029     -0.64453344
  C        0.33339374     10.11147361      0.20714109
  H        0.11660687     11.15355554     -0.06082299
  H        1.38744276     10.05747443      0.50277323
  H       -0.27468627      9.86116458      1.08415215
  C        0.93851859      9.50249217     -2.16814456
  H        0.72416610     10.50921718     -2.55000692
  H        1.99530924      9.47567823     -1.87896877
  H        0.80616966      8.79748573     -2.99504088



