%Mem=256MB 
%NProc=12 

#P HF/6-31G* SCF(Conver=6) NoSymm Test 
   Pop=chelpg IOp(6/33=2) GFInput GFPrint 

MEP - Input generated by R.E.D.-III.x MOLECULE 

0 1 
  O        0.00000000      0.00000000      0.00000000
  H        0.96763426      0.00000000      0.00000000
  O        1.64720419     -2.67135597      6.44116998
  H        2.58548534     -2.44212889      6.49811801
  C       -1.19511631      4.12036123      1.55621964
  C       -1.28740834      2.62278350      1.14308656
  H       -2.25956602      2.27952624      1.53778590
  C       -0.23908509      1.69799350      1.78698805
  H        0.76699097      1.99445108      1.45568485
  C       -0.32695656      1.80870616      3.33507632
  H       -1.30734421      1.38407357      3.60730048
  C       -2.37877066      4.70773635      0.71165370
  H       -3.29694348      4.37250061      1.21654557
  C       -1.36554464      4.17012789      3.08705756
  H       -2.38080001      3.83127487      3.33944736
  H       -1.27383502      5.19055528      3.47265034
  C        0.73421303      0.92572788      4.07985025
  C       -1.43061910      2.66055754     -0.38740888
  H       -1.90242472      1.75839612     -0.78362659
  H       -0.44783569      2.72337182     -0.86638999
  C       -0.33462587      3.28068317      3.80800623
  H        0.66033847      3.71859673      3.67326931
  H       -0.53714973      3.31891485      4.88409116
  C       -2.26668383      3.94312192     -0.64772588
  H       -1.78132042      4.57493975     -1.40118071
  H       -3.25851498      3.70267532     -1.04373824
  C       -0.44277919      0.23365981      1.35181300
  H       -1.52078332      0.02353489      1.30426380
  C       -2.49204770      6.24105816      0.52179690
  H       -1.58255509      6.57322769      0.00000000
  C        0.14339730      4.76797053      1.13378272
  H        1.00857077      4.24402298      1.54842050
  H        0.26594492      4.78173586      0.04675638
  H        0.19770862      5.80500592      1.48170365
  C        0.77112173     -0.47583856      3.46064199
  C        0.30766442      0.78727804      5.57491577
  H       -0.76176571      0.53684013      5.60527301
  H        0.41396684      1.75543952      6.07543267
  C        0.21339357     -0.75590538      2.27357056
  H        0.24026541     -1.77763758      1.89485228
  C        2.15549056      1.54491312      4.00152428
  H        2.22115254      2.46817926      4.58538229
  H        2.91365207      0.86174595      4.39317554
  H        2.43182975      1.77402900      2.96775638
  C        1.46589785     -1.56625996      4.25435689
  H        1.33497356     -2.53502969      3.76236525
  H        2.55014972     -1.37088738      4.28440940
  C        1.07473044     -0.27831322      6.37298829
  H        2.13630031     -0.00316493      6.46128429
  H        0.68043130     -0.33693793      7.39383616
  C       -3.66960192      6.62979886     -0.41384667
  H       -3.62339784      7.71793685     -0.56735123
  H       -3.50379494      6.18309120     -1.40050886
  C        0.96963820     -1.64921402      5.70548971
  H       -0.07934100     -1.96966161      5.70525871
  C       -2.57190971      7.03023141      1.84239582
  H       -3.35157136      6.64218404      2.50716360
  H       -2.79926271      8.08455449      1.64471489
  H       -1.62831449      7.00099849      2.39319695
  C       -5.08171697      6.27080491      0.07969193
  H       -5.19307733      5.18133200      0.14387743
  H       -5.21717644      6.64577957      1.10190253
  C       -6.21460530      6.85846871     -0.78364392
  H       -6.11089887      7.95326109     -0.79258470
  H       -7.17614574      6.64989277     -0.29121101
  C       -6.30842551      6.36645056     -2.24379638
  H       -5.34899533      6.57067507     -2.74012906
  C       -7.39282634      7.15208978     -2.99869622
  H       -8.38012252      6.98747674     -2.54799629
  H       -7.45148486      6.84210314     -4.04832403
  H       -7.19333299      8.22967749     -2.97764473
  C       -6.57630884      4.85588658     -2.33676912
  H       -7.51969401      4.59692692     -1.83842959
  H       -6.65438716      4.53541513     -3.38189251
  H       -5.78085959      4.26538660     -1.87101833



