%Mem=256MB 
%NProc=12 

#P HF/6-31G* SCF(Conver=6) NoSymm Test 
   Pop=chelpg IOp(6/33=2) GFInput GFPrint 

MEP - Input generated by R.E.D.-III.x MOLECULE 

0 1 
  O        6.70234226      0.90101169      0.00000000
  H        7.05515628     -0.00000000     -0.00000000
  O        9.85516375      0.37191247     -6.41142870
  H        9.98500647     -0.58500388     -6.47149288
  C        2.44391235      0.51458784     -1.59755514
  C        3.80141222      1.14647488     -1.17181955
  H        3.76971174      2.17812570     -1.56377909
  C        5.05180829      0.50983363     -1.80487487
  H        5.13996992     -0.53600535     -1.47557880
  C        4.93176480      0.55486035     -3.35372929
  H        4.96756200      1.62331053     -3.62334002
  C        1.45371556      1.40069640     -0.76309875
  H        1.41472694      2.37531175     -1.27553721
  C        2.35266179      0.65458912     -3.13026117
  H        2.30013947      1.72355488     -3.38289255
  H        1.44137036      0.19699581     -3.52753319
  C        6.14988701     -0.10486644     -4.08962039
  C        3.69917170      1.26146147      0.35684891
  H        4.37555932      2.01572568      0.76537835
  H        3.97585489      0.31560679      0.83455667
  C        3.56485014      0.02019736     -3.83828070
  H        3.52204204     -1.06564904     -3.70042204
  H        3.46461977      0.19128163     -4.91586468
  C        2.20380926      1.59988152      0.59796372
  H        1.77548161      0.94806886      1.36908441
  H        2.08502049      2.62495956      0.96195284
  C        6.33595502      1.23311642     -1.35414815
  H        6.13697918      2.31310957     -1.30413931
  C       -0.01540207      0.94020671     -0.57239510
  H        0.00000000      0.00000000      0.00000000
  C        2.32733661     -0.96760536     -1.17332198
  H        3.13921368     -1.58032110     -1.57392399
  H        2.34302122     -1.08321556     -0.08558821
  H        1.38856242     -1.40112938     -1.53335343
  C        7.46136176      0.37056030     -3.45498322
  C        6.13770301      0.35177258     -5.58217468
  H        5.98071734      1.43898622     -5.60726081
  H        5.28004499     -0.09745865     -6.09386944
  C        7.50603979      0.98780147     -2.26522447
  H        8.46293626      1.33503044     -1.87552487
  C        6.09341124     -1.65459749     -4.02085287
  H        5.26434690     -2.05026424     -4.61557996
  H        7.01064556     -2.10797213     -4.40564041
  H        5.97051596     -2.00140957     -2.99023735
  C        8.73829350      0.12610598     -4.23689290
  H        9.58721138      0.59932990     -3.73378527
  H        8.95286269     -0.95440545     -4.27024532
  C        7.41767165      0.03152724     -6.36953052
  H        7.55005755     -1.05665864     -6.46285255
  H        7.33838342      0.42594161     -7.38893765
  C       -0.79420918      1.97725140      0.27517174
  H       -0.19368877      2.25669179      1.14811578
  H       -0.91448964      2.89751565     -0.31723320
  C        8.64894927      0.62596744     -5.68642310
  H        8.56459928      1.71953308     -5.68119762
  C       -0.75004184      0.67723915     -1.89905315
  H       -0.71531648      1.56161113     -2.54783247
  H       -1.80291850      0.43456978     -1.72734057
  H       -0.31819670     -0.15933611     -2.45280020
  C       -2.17049917      1.51673875      0.78379110
  H       -2.83372245      1.30141241     -0.06158551
  H       -2.04622108      0.57135429      1.32937770
  C       -2.83040794      2.56334243      1.69661848
  H       -2.91185950      3.50995172      1.14281473
  H       -2.15815250      2.76562152      2.54295990
  C       -4.22675158      2.21007540      2.26000347
  H       -4.52381135      3.06497766      2.88546485
  C       -4.20210281      0.97166825      3.17118969
  H       -3.97480473      0.05941162      2.60762353
  H       -5.17488296      0.82325884      3.65384997
  H       -3.44909991      1.07277555      3.96167980
  C       -5.29171759      2.06552531      1.16011058
  H       -5.10296889      1.19148802      0.52613393
  H       -6.28911939      1.94173981      1.59730114
  H       -5.31867653      2.94947156      0.51202111



