%Mem=256MB 
%NProc=12 

#P HF/6-31G* SCF(Conver=6) NoSymm Test 
   Pop=chelpg IOp(6/33=2) GFInput GFPrint 

MEP - Input generated by R.E.D.-III.x MOLECULE 

0 1 
  O        0.00000000      0.00000000      0.00000000
  H        0.96763451     -0.00000000     -0.00000000
  O        1.61727239     -2.81566942      6.38607027
  H        2.55504091     -2.58770574      6.45525003
  C       -1.19424069      4.08924757      1.64835260
  C       -1.27689001      2.60189308      1.19070316
  H       -2.25149464      2.24184503      1.56238520
  C       -0.23544442      1.66069931      1.82195260
  H        0.77459319      1.95667005      1.50320395
  C       -0.33156243      1.74024170      3.37253142
  H       -1.31522512      1.31413509      3.63037207
  C       -2.38934176      4.67052884      0.81537998
  H       -3.28051148      4.21955759      1.27377081
  C       -1.37069450      4.10280592      3.17780544
  H       -2.38259921      3.75177043      3.42414638
  H       -1.28404570      5.11887365      3.58060324
  C        0.72199136      0.83713791      4.10440185
  C       -1.39962177      2.68832090     -0.34264261
  H       -1.86733738      1.79934416     -0.77192501
  H       -0.40944785      2.76317640     -0.80450129
  C       -0.33626617      3.20183594      3.87872095
  H        0.65814833      3.64267294      3.75113739
  H       -0.53670717      3.21548457      4.95573598
  C       -2.22976588      3.98183357     -0.57663586
  H       -1.72601099      4.64184282     -1.29044356
  H       -3.21420951      3.76383913     -1.00563300
  C       -0.44322159      0.20649211      1.35595112
  H       -1.52171351      0.00025467      1.30311427
  C       -2.72523879      6.18583295      0.70700868
  H       -3.56841312      6.21120593      0.00000000
  C        0.15902752      4.73158611      1.26335208
  H        1.00806525      4.12497100      1.58921162
  H        0.25884234      4.86932445      0.18395194
  H        0.26916053      5.71343005      1.73272760
  C        0.76249932     -0.54963486      3.45284356
  C        0.28250742      0.66236147      5.59210082
  H       -0.78702639      0.41102784      5.60675508
  H        0.38399390      1.61798021      6.11715492
  C        0.20980599     -0.80327964      2.25757705
  H        0.23842436     -1.81629482      1.85626901
  C        2.14441980      1.45642235      4.05336191
  H        2.20543805      2.36554406      4.65943471
  H        2.89854371      0.76349687      4.43543444
  H        2.43014306      1.70980068      3.02785096
  C        1.45292961     -1.65809038      4.22510620
  H        1.32713354     -2.61478681      3.70876687
  H        2.53662202     -1.46225815      4.26860064
  C        1.04296524     -0.42217411      6.37087901
  H        2.10351870     -0.14887550      6.47545098
  H        0.63950660     -0.50560329      7.38641084
  C       -3.22947199      6.83278069      2.02060840
  H       -2.41460500      6.83169827      2.75590187
  H       -3.43147720      7.89264049      1.80752135
  C        0.94480781     -1.77661947      5.66962965
  H       -0.10378777     -2.09787326      5.65279357
  C       -1.64413895      7.09656668      0.09037860
  H       -0.84180412      7.32223339      0.79907287
  H       -2.09337831      8.05223690     -0.20299683
  H       -1.18792558      6.66417344     -0.80483970
  C       -4.49063089      6.23557420      2.67515744
  H       -4.30826608      5.19389856      2.96245304
  H       -4.66007629      6.77893986      3.61345668
  C       -5.75287802      6.32393873      1.80110412
  H       -5.61177643      5.71901146      0.89557422
  H       -5.86874495      7.36222166      1.45650624
  C       -7.07895757      5.88281429      2.46552612
  H       -7.85413966      5.99572867      1.69318023
  C       -7.48451457      6.78427669      3.64357957
  H       -6.79477343      6.68272629      4.48934269
  H       -8.48507310      6.52278575      4.00656527
  H       -7.50141424      7.84055398      3.35027191
  C       -7.06870721      4.40237370      2.88131100
  H       -6.36085978      4.21714688      3.69753189
  H       -8.05902776      4.08854089      3.23056085
  H       -6.78998673      3.75379658      2.04239937



