%Mem=256MB 
%NProc=12 

#P HF/6-31G* SCF(Conver=6) NoSymm Test 
   Pop=chelpg IOp(6/33=2) GFInput GFPrint 

MEP - Input generated by R.E.D.-III.x MOLECULE 

0 1 
  O        6.70307744      0.90241151      0.00000000
  H        7.05231240     -0.00000000      0.00000000
  O        9.78074531      0.33925781     -6.44580717
  H        9.90547063     -0.61838294     -6.50522102
  C        2.42718220      0.52560838     -1.54914075
  C        3.79083827      1.15395617     -1.13943987
  H        3.75857039      2.18370325     -1.53604727
  C        5.03124372      0.51053081     -1.78473508
  H        5.11932994     -0.53476267     -1.45356989
  C        4.89325097      0.55207019     -3.33252026
  H        4.93093203      1.61974455     -3.60491285
  C        1.45333087      1.41875408     -0.70489180
  H        1.43493956      2.39519617     -1.21139714
  C        2.31665367      0.66262901     -3.08017355
  H        2.26362492      1.73093991     -3.33538979
  H        1.39847259      0.20573062     -3.46303748
  C        6.10009463     -0.11490098     -4.08042298
  C        3.70629971      1.27713647      0.39096133
  H        4.37715839      2.04449434      0.78413556
  H        4.00454759      0.33940859      0.87155156
  C        3.51841114      0.02284083     -3.80144035
  H        3.47256771     -1.06271063     -3.66272258
  H        3.40712000      0.19393956     -4.87791651
  C        2.20840700      1.59262868      0.65327241
  H        1.79642248      0.91196287      1.40782766
  H        2.07300663      2.60471331      1.04826298
  C        6.32327791      1.23026904     -1.35140694
  H        6.12922862      2.31128585     -1.30391005
  C       -0.01775968      0.97265048     -0.51321678
  H        0.00000000      0.00000000      0.00000000
  C        2.30759951     -0.95550232     -1.12350551
  H        3.10839282     -1.57375301     -1.53765389
  H        2.33983807     -1.07248548     -0.03627026
  H        1.35996150     -1.38148919     -1.46999461
  C        7.42086171      0.35674202     -3.46225481
  C        6.07282454      0.33687438     -5.57422682
  H        5.91962126      1.42457672     -5.60112750
  H        5.20788616     -0.11085629     -6.07482439
  C        7.48200463      0.97659429     -2.27457751
  H        8.44484058      1.32047564     -1.89672375
  C        6.03831128     -1.66415420     -4.00616137
  H        5.20030121     -2.05830902     -4.58921295
  H        6.94894263     -2.12208144     -4.40107262
  H        5.92722897     -2.00739542     -2.97302964
  C        8.68764004      0.10426373     -4.25805494
  H        9.54444316      0.57491925     -3.76603397
  H        8.89673503     -0.97731985     -4.29093226
  C        7.34252041      0.00926779     -6.37513445
  H        7.46948906     -1.07972054     -6.46710787
  H        7.25311995      0.40122619     -7.39465437
  C       -0.79998495      1.92398171      0.43183474
  H       -1.79553117      1.48567941      0.59238528
  H       -0.31810048      1.93474452      1.41736733
  C        8.58395130      0.60051500     -5.70785560
  H        8.50428288      1.69445081     -5.70491033
  C       -0.78806224      0.77797752     -1.83295081
  H       -0.70945784      1.65427246     -2.48612524
  H       -1.85276088      0.60841999     -1.63284919
  H       -0.42376002     -0.08474240     -2.39650967
  C       -0.97906651      3.37557441     -0.04384178
  H        0.00367748      3.84385482     -0.17792848
  H       -1.46364345      3.38446961     -1.02762677
  C       -1.81210798      4.20433022      0.94794767
  H       -1.32336183      4.16906855      1.93246401
  H       -2.78904649      3.71653517      1.07857965
  C       -2.05559047      5.68672962      0.58037729
  H       -2.66276842      6.10365056      1.39758320
  C       -2.86885601      5.85089111     -0.71438990
  H       -2.30422838      5.51543963     -1.59199523
  H       -3.13259063      6.90198584     -0.87849520
  H       -3.80097108      5.27483436     -0.67611417
  C       -0.75496319      6.50511568      0.52285625
  H       -0.11627967      6.19182203     -0.31109359
  H       -0.97072189      7.57091377      0.38570876
  H       -0.17482432      6.39820776      1.44701472



