%Mem=256MB 
%NProc=12 

#P HF/6-31G* SCF(Conver=6) NoSymm Test 
   Pop=chelpg IOp(6/33=2) GFInput GFPrint 

MEP - Input generated by R.E.D.-III.x MOLECULE 

0 1 
  O        6.12271710      3.72008268     -0.00000000
  H        5.85513618      3.73251352     -0.92980947
  O        0.00000000      0.00000000      0.00000000
  H       -0.11089773     -0.16683691     -0.94658717
  C        8.82734254      0.06733883      0.41993019
  C        7.90431580      1.26299693      0.79536003
  H        7.68457828      1.12683121      1.86875421
  C        6.53183713      1.27935195      0.09851728
  H        6.67077592      1.39438564     -0.98655533
  C        5.78582948     -0.05377211      0.38482459
  H        5.57519641     -0.04948735      1.46701573
  C       10.08284359      0.40125266      1.29884702
  H        9.80605730      0.14508130      2.33417318
  C        8.06320608     -1.21860391      0.79236341
  H        7.93408753     -1.24698588      1.88406909
  H        8.62584842     -2.11800082      0.52299422
  C        4.38509812     -0.14310101     -0.31545901
  C        8.82317318      2.49043045      0.69403689
  H        8.45529941      3.33790778      1.27686691
  H        8.88738238      2.83975109     -0.34197367
  C        6.68264700     -1.28303741      0.11204471
  H        6.82902769     -1.40257873     -0.96692165
  H        6.17230265     -2.19197589      0.44944051
  C       10.19251459      1.96181831      1.19867090
  H       11.00021454      2.24596353      0.51354301
  H       10.44634882      2.39891591      2.16915434
  C        5.67957456      2.47307344      0.57176446
  H        5.83908779      2.61879716      1.64963159
  C       11.43154460     -0.30592041      1.00784776
  H       11.74911264     -0.00000000      0.00000000
  C        9.20404100      0.06684358     -1.07988668
  H        8.32494735      0.05374787     -1.72949568
  H        9.79320729      0.94703966     -1.35344598
  H        9.80183602     -0.81575430     -1.32947358
  C        3.61819135      1.16875567     -0.11583479
  C        3.56585598     -1.29196714      0.35195887
  H        3.64903924     -1.18420004      1.44225579
  H        4.01871709     -2.25668553      0.10011068
  C        4.21043576      2.29435757      0.30934989
  H        3.61084993      3.19105248      0.46591692
  C        4.51885739     -0.41805688     -1.83731650
  H        4.90003479     -1.42585510     -2.02869299
  H        3.55529709     -0.33627499     -2.34699298
  H        5.19576902      0.29903026     -2.31173386
  C        2.13002913      1.15359362     -0.41043504
  H        1.67896956      2.11119746     -0.13249599
  H        1.96656463      1.02959987     -1.49330140
  C        2.07449944     -1.32478895     -0.01655226
  H        1.94721268     -1.54356792     -1.08722659
  H        1.57191613     -2.13107192      0.52967390
  C       12.53252386      0.16657659      2.00656142
  H       12.19329317      1.06019687      2.54024878
  H       12.66912037     -0.60415528      2.77877233
  C        1.39756093      0.00767508      0.30318472
  H        1.43600432      0.18003707      1.38570576
  C       11.33460523     -1.84305204      1.02618466
  H       10.89364949     -2.19363974      1.96765066
  H       12.32674131     -2.29635109      0.94160857
  H       10.72716940     -2.23524000      0.20650100
  C       13.89933591      0.50231024      1.37851514
  H       13.75291880      1.29899911      0.63721500
  H       14.54131756      0.93055689      2.16194623
  C       14.64335704     -0.67785987      0.73512886
  H       14.06880963     -1.06712554     -0.11773398
  H       14.69886299     -1.49686443      1.46681093
  C       16.07480976     -0.36018338      0.25461525
  H       16.62516395      0.06324527      1.10918549
  C       16.10038670      0.67524248     -0.88156890
  H       15.53744745      0.31122995     -1.75109751
  H       17.12766778      0.86986497     -1.21015101
  H       15.66494956      1.63253738     -0.57854702
  C       16.79709040     -1.64687100     -0.17562717
  H       16.28763214     -2.11466008     -1.02798058
  H       17.82986155     -1.44120237     -0.47943344
  H       16.82622319     -2.38061646      0.63811113



