%Mem=256MB 
%NProc=12 

#P HF/6-31G* SCF(Conver=6) NoSymm Test 
   Pop=chelpg IOp(6/33=2) GFInput GFPrint 

MEP - Input generated by R.E.D.-III.x MOLECULE 

0 1 
  O        0.43480562     -3.35169785      7.27122395
  H        0.26289531     -4.29208924      7.12961216
  C        1.51069413      1.50243984      0.00000000
  C        1.10333556      0.00000000      0.00000000
  H        0.00000000      0.00000000      0.00000000
  C        1.51107923     -0.79220391      1.24890122
  H        2.60741277     -0.82611524      1.31699080
  C        0.94329500     -0.10407773      2.51897695
  H       -0.15116292     -0.22077264      2.45149463
  C        0.93322580      1.91329518     -1.39927120
  H       -0.15624984      1.84896341     -1.27090939
  C        0.84019893      2.14283602      1.23096924
  H       -0.25080787      2.10326746      1.10368492
  H        1.10709607      3.20222719      1.32480785
  C        1.36692393     -0.83392460      3.84222843
  C        1.53873880     -0.51216501     -1.38499559
  H        0.96128134     -1.38485198     -1.70611390
  H        2.59209061     -0.81854741     -1.37023594
  C        1.22798505      1.41683444      2.53586293
  H        2.29029141      1.59541681      2.73233129
  H        0.68598662      1.88295858      3.36640568
  C        1.32601805      0.71331994     -2.31959522
  H        2.23653253      0.93000851     -2.88733835
  H        0.54002524      0.53048544     -3.06064614
  C        1.00316084     -2.24107462      1.17015418
  H        1.59683900     -2.80955256      0.44191035
  H       -0.02661579     -2.24896180      0.77559598
  C        1.17054785      3.29538147     -2.07319292
  H        0.67164090      3.19516623     -3.04927292
  C        3.04477452      1.68282545      0.07728424
  H        3.30261511      2.73352413      0.23835004
  H        3.48211780      1.11653897      0.90324789
  H        3.54734061      1.35775294     -0.83733834
  C        1.20545385     -2.35257302      3.68451335
  C        0.42491747     -0.36326230      4.99413928
  H       -0.61126454     -0.41463287      4.63164729
  H        0.62317572      0.69016515      5.21978015
  C        1.02874160     -2.94779039      2.49568950
  H        0.89516317     -4.02989673      2.46987114
  C        2.84051749     -0.52503828      4.21982529
  H        2.96664787      0.52096624      4.51646325
  H        3.17677478     -1.13919341      5.05887479
  H        3.51417616     -0.72767367      3.38147656
  C        1.25253438     -3.17643999      4.95800285
  H        1.03501920     -4.22628513      4.72270256
  H        2.25845025     -3.15354367      5.40062083
  C        0.52962292     -1.17953816      6.29060247
  H        1.52085721     -1.07175004      6.74836411
  H       -0.19636129     -0.81146935      7.02446084
  C        0.49697533      4.48794410     -1.35056995
  H        0.96594096      4.62000039     -0.36726081
  H        0.74249252      5.39715586     -1.91845221
  C        0.27918626     -2.65854575      6.02672252
  H       -0.75351930     -2.78678939      5.66226384
  C        2.63112480      3.67261765     -2.39420284
  H        3.17534902      4.00647141     -1.50595501
  H        2.64637631      4.50058283     -3.11212077
  H        3.19340006      2.84683458     -2.83979482
  C       -1.03303423      4.44409895     -1.17012234
  H       -1.31539893      3.57922222     -0.55925152
  H       -1.31826523      5.32818177     -0.58594060
  C       -1.82010534      4.43226392     -2.49123863
  H       -1.58998088      3.51192525     -3.04442198
  H       -1.46182474      5.26084642     -3.11996564
  C       -3.35903973      4.54355946     -2.37364807
  H       -3.74300055      4.50214097     -3.40374672
  C       -3.81609509      5.88558824     -1.77790409
  H       -3.38189601      6.73229846     -2.32250660
  H       -4.90680886      5.98131269     -1.82708279
  H       -3.52807726      5.98182459     -0.72479023
  C       -3.98124171      3.36106199     -1.61247004
  H       -3.66761592      2.40144917     -2.04022787
  H       -5.07565162      3.40287072     -1.65417601
  H       -3.69438371      3.36583282     -0.55455788



