%Mem=256MB 
%NProc=12 

#P HF/6-31G* SCF(Conver=6) NoSymm Test 
   Pop=chelpg IOp(6/33=2) GFInput GFPrint 

MEP - Input generated by R.E.D.-III.x MOLECULE 

0 1 
  O        4.21258849      6.54913074      4.12467877
  H        4.99114426      6.90033673      3.67251274
  C        0.00000000      0.00000000      0.00000000
  C        1.34511516      0.61897495     -0.47338634
  H        2.12688697      0.00000000     -0.00000000
  C        1.61221069      2.05370851      0.00000000
  H        0.84750732      2.72186310     -0.42101952
  C        1.54701829      2.11707066      1.54860522
  H        2.41089594      1.53056127      1.90311190
  C        0.09178005     -1.40316243     -0.69419814
  H        0.84483435     -1.96706462     -0.12398849
  C        0.03461304      0.00909960      1.54201123
  H        0.83687676     -0.66308117      1.87963564
  H       -0.89574404     -0.37750792      1.97060693
  C        1.76234433      3.56841569      2.10545462
  C        1.40107043      0.30962215     -1.97762421
  H        2.42591902      0.28819421     -2.36149921
  H        0.86536802      1.07613004     -2.55141735
  C        0.28006911      1.42519710      2.10340061
  H       -0.60136739      2.04028082      1.89327241
  H        0.34516552      1.35772976      3.19529402
  C        0.69758615     -1.07105401     -2.09802094
  H       -0.09412793     -1.03744025     -2.85568773
  H        1.39503722     -1.85163562     -2.41822545
  C        2.98530820      2.54608841     -0.48507687
  H        2.95071683      2.75984836     -1.56166521
  H        3.72615571      1.73691445     -0.37291261
  C       -1.17322202     -2.29167493     -0.79078126
  H       -1.92419153     -1.72995353     -1.36538776
  C       -1.22909659      0.77882747     -0.52179129
  H       -2.15505851      0.34605370     -0.12813561
  H       -1.21279532      1.82983639     -0.22322890
  H       -1.29737576      0.75502384     -1.61368616
  C        2.93684535      4.24373567      1.38339378
  C        2.11659779      3.47175814      3.62228707
  H        2.89202525      2.70269368      3.74447446
  H        1.24103087      3.12124178      4.17947920
  C        3.46989206      3.76320014      0.25037677
  H        4.32061977      4.28646230     -0.18771220
  C        0.49430445      4.44519823      1.92436819
  H       -0.32293575      4.10471451      2.56799300
  H        0.68900266      5.48996090      2.17885201
  H        0.14535120      4.42569039      0.88726067
  C        3.48794556      5.50736816      2.01753637
  H        4.37509742      5.83831996      1.46228210
  H        2.75544873      6.32487985      1.95922325
  C        2.62060692      4.77759107      4.25394053
  H        1.83895360      5.54749806      4.25047375
  H        2.88844545      4.60726132      5.30290300
  C       -0.91861961     -3.59031805     -1.60235539
  H       -1.88122464     -4.11224416     -1.70191454
  H       -0.61690164     -3.32795057     -2.62416882
  C        3.83075044      5.31622304      3.50210898
  H        4.65678314      4.59091556      3.58792755
  C       -1.80135740     -2.62741818      0.57494555
  H       -1.06499525     -3.03906214      1.27420799
  H       -2.59867139     -3.37088076      0.45710894
  H       -2.24591055     -1.74805099      1.04767585
  C        0.11095664     -4.57523760     -1.02325483
  H        1.08892868     -4.08436510     -0.94718422
  H       -0.17721776     -4.85147535     -0.00183570
  C        0.23809041     -5.84343725     -1.88354410
  H        0.50250412     -5.54722726     -2.90914659
  H       -0.75028213     -6.32057234     -1.95289329
  C        1.25708452     -6.90494566     -1.40753854
  H        1.19985398     -7.72594716     -2.13760244
  C        0.89890159     -7.49685739     -0.03422549
  H       -0.13016099     -7.87485661     -0.01859882
  H        1.56459011     -8.33062421      0.21665802
  H        0.99358932     -6.75193697      0.76428803
  C        2.70493290     -6.38704515     -1.42498406
  H        2.96845290     -5.97180814     -2.40493539
  H        3.41098817     -7.19585087     -1.20455589
  H        2.86329698     -5.60280986     -0.67570281



