%Mem=256MB 
%NProc=12 

#P HF/6-31G* SCF(Conver=6) NoSymm Test 
   Pop=chelpg IOp(6/33=2) GFInput GFPrint 

MEP - Input generated by R.E.D.-III.x MOLECULE 

0 1 
  O        0.43971341     -3.39448168      7.25106440
  H        0.27546618     -4.33538690      7.10389871
  C        1.50747097      1.50148833      0.00000000
  C        1.10390162      0.00000000     -0.00000000
  H        0.00000000      0.00000000      0.00000000
  C        1.51737719     -0.79496944      1.24570711
  H        2.61433520     -0.81461505      1.31457323
  C        0.94003022     -0.12018789      2.51719703
  H       -0.15327229     -0.24496193      2.44589037
  C        0.95140096      1.93396543     -1.40208230
  H       -0.14340440      1.98873840     -1.29118260
  C        0.83081225      2.13185709      1.23524983
  H       -0.25949001      2.08803703      1.09836435
  H        1.08729057      3.19030744      1.34411178
  C        1.36561118     -0.85262515      3.83821842
  C        1.53577068     -0.50998567     -1.38247004
  H        0.97582664     -1.39677666     -1.69575337
  H        2.59611998     -0.79156361     -1.37767187
  C        1.21501095      1.40110604      2.53860554
  H        2.27568056      1.58445710      2.74067566
  H        0.66746073      1.86334034      3.36778578
  C        1.28282586      0.70465526     -2.31691755
  H        2.16560324      0.91437733     -2.93278729
  H        0.46311242      0.50287539     -3.01284548
  C        1.02606623     -2.24900303      1.15768309
  H        1.62967916     -2.80784047      0.43017075
  H       -0.00131937     -2.26594234      0.75717196
  C        1.40344391      3.27963459     -2.02746239
  H        2.48795750      3.21863240     -2.20633268
  C        3.03962874      1.70201355      0.05290077
  H        3.28839653      2.76700974      0.10694142
  H        3.49187895      1.22083688      0.92354558
  H        3.53685293      1.29736145     -0.83393186
  C        1.21744159     -2.37162641      3.67256152
  C        0.41589070     -0.39485652      4.98887801
  H       -0.61855384     -0.45247129      4.62240999
  H        0.60515631      0.65901331      5.22017675
  C        1.05146107     -2.96212430      2.47984607
  H        0.92731982     -4.04519861      2.44777146
  C        2.83536951     -0.53334900      4.22207549
  H        2.95142512      0.51192638      4.52536777
  H        3.17455585     -1.14966247      5.05833923
  H        3.51309553     -0.72510742      3.38442024
  C        1.26580691     -3.20121561      4.94224123
  H        1.05766240     -4.25163803      4.70105099
  H        2.26966875     -3.17243460      5.38913583
  C        0.52205872     -1.21664570      6.28175720
  H        1.51072937     -1.10352434      6.74379999
  H       -0.20949744     -0.85786983      7.01468093
  C        0.72544441      3.48412634     -3.40532091
  H        0.81906528      2.56518212     -3.99511970
  H       -0.35387497      3.63508201     -3.24852337
  C        0.28402052     -2.69616277      6.00945833
  H       -0.74611666     -2.83042291      5.63991284
  C        1.13972037      4.49144613     -1.11632216
  H        0.07979217      4.54885820     -0.83794993
  H        1.40146914      5.42816228     -1.61718170
  H        1.72411061      4.45016517     -0.19463726
  C        1.28203461      4.64048994     -4.25271148
  H        1.12555313      5.59535462     -3.73842680
  H        2.36905428      4.51502757     -4.35046728
  C        0.63610220      4.69949760     -5.64677702
  H       -0.45362163      4.78373924     -5.52495408
  H        0.80966893      3.74022225     -6.15558370
  C        1.10849654      5.83696003     -6.58216776
  H        0.54814286      5.70748369     -7.52001271
  C        2.60251382      5.73461486     -6.93136873
  H        2.85334073      4.74283832     -7.32588107
  H        2.87699581      6.47520881     -7.69124748
  H        3.23565936      5.91582619     -6.05514956
  C        0.76249052      7.23396118     -6.04040165
  H       -0.30335927      7.31479728     -5.79645664
  H        0.99482454      8.00759072     -6.78120127
  H        1.33196622      7.46939707     -5.13390774



