%Mem=256MB 
%NProc=12 

#P HF/6-31G* SCF(Conver=6) NoSymm Test 
   Pop=chelpg IOp(6/33=2) GFInput GFPrint 

MEP - Input generated by R.E.D.-III.x MOLECULE 

0 1 
  O       -3.72437512     -3.62153058     -4.12311393
  H       -3.87359581     -4.46270171     -3.67132901
  C        1.60181056      2.06404496      0.00000000
  C        1.32718653      0.60833732      0.47244435
  H        2.11791374      0.00000000      0.00000000
  C        0.00000000      0.00000000      0.00000000
  H       -0.83373958      0.57961874      0.42117834
  C       -0.07872548      0.04696104     -1.54816687
  H        0.70094445     -0.64710376     -1.90353762
  C        2.98710235      2.31804980      0.69181080
  H        3.72570130      1.74045882      0.11315269
  C        1.59732787      2.02647682     -1.54272284
  H        2.44339448      1.41073639     -1.88101762
  H        1.74565138      3.02113991     -1.97470145
  C       -1.43371669     -0.51612858     -2.10425480
  C        1.63954296      0.63006324      1.97568733
  H        1.89404790     -0.36076479      2.36501439
  H        0.77071912      0.97999960      2.54697112
  C        0.28220358      1.44481144     -2.10154906
  H       -0.52846267      2.14960566     -1.88803739
  H        0.36105102      1.40023447     -3.19369430
  C        2.82411638      1.62821478      2.08990263
  H        2.62746986      2.37891312      2.86462838
  H        3.74564026      1.11688146      2.38367468
  C       -0.14313878     -1.45123510      0.48657941
  H       -0.35994423     -1.46864727      1.56297405
  H        0.82234017     -1.97260618      0.37601962
  C        3.54132732      3.76298670      0.80348539
  H        2.84326254      4.33694786      1.42967300
  C        0.54873806      3.06611928      0.52633386
  H        0.74127284      4.07026608      0.13418923
  H       -0.46774171      2.79443038      0.23115652
  H        0.55951893      3.13643028      1.61832029
  C       -1.80077982     -1.82028180     -1.38225589
  C       -1.25451458     -0.83512859     -3.62137957
  H       -0.31874829     -1.39800997     -3.74467258
  H       -1.13000976      0.09994572     -4.17827186
  C       -1.20455551     -2.21904281     -0.24898138
  H       -1.50366941     -3.17184342      0.18938915
  C       -2.59391868      0.49882679     -1.92175712
  H       -2.46388212      1.37524474     -2.56444649
  H       -3.55935828      0.05470021     -2.17658804
  H       -2.66015825      0.84068562     -0.88423511
  C       -2.89113016     -2.66408216     -2.01614480
  H       -2.99449005     -3.60535106     -1.46098896
  H       -3.86309704     -2.15406781     -1.95733055
  C       -2.39727698     -1.64383363     -4.25245615
  H       -3.33536783     -1.07487387     -4.24844558
  H       -2.16705748     -1.86147835     -5.30159990
  C        4.91517117      3.74185507      1.52189195
  H        4.81773940      3.19658009      2.46658767
  H        5.61273614      3.15242674      0.90809915
  C       -2.62241199     -2.94928021     -3.50086241
  H       -1.71678481     -3.57229359     -3.58723640
  C        3.65568023      4.47698096     -0.55420499
  H        4.28745848      3.90644784     -1.24680229
  H        4.10019250      5.47065122     -0.44439736
  H        2.68225984      4.61605146     -1.02909983
  C        5.57077339      5.10677558      1.81345539
  H        6.53874418      4.91716174      2.29474108
  H        5.81387356      5.61268806      0.87113917
  C        4.75096511      6.07961548      2.68227999
  H        3.82752056      6.34858727      2.15160508
  H        5.32012738      7.01586735      2.78144602
  C        4.37426735      5.59372164      4.09803523
  H        3.79537739      4.66391192      4.00075061
  C        3.47152572      6.62699748      4.79118289
  H        2.56696341      6.82516736      4.20463622
  H        3.15908603      6.28159023      5.78332394
  H        3.99846409      7.58091311      4.92218916
  C        5.60806918      5.29029925      4.96304202
  H        6.22887308      4.49705874      4.53423620
  H        5.31177792      4.96925297      5.96816146
  H        6.23631471      6.18405727      5.07158613



