%Mem=256MB 
%NProc=12 

#P HF/6-31G* SCF(Conver=6) NoSymm Test 
   Pop=chelpg IOp(6/33=2) GFInput GFPrint 

MEP - Input generated by R.E.D.-III.x MOLECULE 

0 1 
  O        0.43972067     -3.39448036      7.25106656
  H        0.27547730     -4.33538694      7.10390238
  C        1.50747017      1.50148842      0.00000000
  C        1.10390174     -0.00000000     -0.00000000
  H        0.00000000      0.00000000      0.00000000
  C        1.51737642     -0.79496874      1.24570833
  H        2.61433454     -0.81461497      1.31457526
  C        0.94002868     -0.12018660      2.51719723
  H       -0.15327361     -0.24496141      2.44588996
  C        0.95140088      1.93396313     -1.40208347
  H       -0.14340368      1.98873532     -1.29118427
  C        0.83080875      2.13185690      1.23524946
  H       -0.25949332      2.08803586      1.09836200
  H        1.08728602      3.19030756      1.34411038
  C        1.36560954     -0.85262171      3.83821969
  C        1.53577228     -0.50998649     -1.38246897
  H        0.97582696     -1.39677705     -1.69575170
  H        2.59612024     -0.79156519     -1.37767019
  C        1.21500735      1.40110793      2.53860622
  H        2.27567662      1.58446025      2.74067613
  H        0.66745601      1.86334212      3.36778475
  C        1.28282833      0.70465485     -2.31691691
  H        2.16560743      0.91437775     -2.93278457
  H        0.46311867      0.50287457     -3.01284796
  C        1.02606415     -2.24900163      1.15768613
  H        1.62967173     -2.80783929      0.43017003
  H       -0.00132486     -2.26593852      0.75718015
  C        1.40344333      3.27963341     -2.02746300
  H        2.48795704      3.21863227     -2.20633134
  C        3.03962754      1.70201471      0.05290234
  H        3.28839525      2.76701067      0.10694284
  H        3.49187733      1.22083894      0.92354851
  H        3.53685283      1.29736182     -0.83392917
  C        1.21744598     -2.37162426      3.67256424
  C        0.41588587     -0.39485612      4.98887837
  H       -0.61855816     -0.45247671      4.62240851
  H        0.60514532      0.65901385      5.22017713
  C        1.05146506     -2.96212370      2.47984871
  H        0.92732987     -4.04519784      2.44777549
  C        2.83536586     -0.53334089      4.22207977
  H        2.95141827      0.51193403      4.52537306
  H        3.17455534     -1.14965481      5.05834165
  H        3.51309343     -0.72509494      3.38442429
  C        1.26581348     -3.20121277      4.94224444
  H        1.05767420     -4.25163623      4.70105353
  H        2.26967503     -3.17242706      5.38913889
  C        0.52205513     -1.21664537      6.28175742
  H        1.51072513     -1.10351830      6.74380204
  H       -0.20950390     -0.85787202      7.01468028
  C        0.72544606      3.48412176     -3.40532329
  H        0.81907896      2.56518145     -3.99512426
  H       -0.35387606      3.63506605     -3.24852903
  C        0.28402383     -2.69616302      6.00946062
  H       -0.74611180     -2.83042869      5.63991474
  C        1.13971521      4.49144449     -1.11632494
  H        0.07978680      4.54885636     -0.83795407
  H        1.40146427      5.42816136     -1.61718406
  H        1.72410310      4.45016604     -0.19463884
  C        1.28202552      4.64049498     -4.25270900
  H        1.12552218      5.59535670     -3.73842665
  H        2.36904891      4.51505070     -4.35045177
  C        0.63610948      4.69948957     -5.64678160
  H       -0.45361778      4.78370813     -5.52497157
  H        0.80970109      3.74021794     -6.15558656
  C        1.10848900      5.83696293     -6.58216662
  H        0.54815098      5.70747215     -7.52001847
  C        2.60251396      5.73465086     -6.93134785
  H        2.85336851      4.74288015     -7.32585570
  H        2.87698912      6.47525179     -7.69122206
  H        3.23564358      5.91587783     -6.05511978
  C        0.76244354      7.23395554     -6.04040463
  H       -0.30341145      7.31476663     -5.79647520
  H        0.99476983      8.00759088     -6.78120174
  H        1.33190240      7.46940388     -5.13390280



