%Mem=256MB 
%NProc=12 

#P HF/6-31G* SCF(Conver=6) NoSymm Test 
   Pop=chelpg IOp(6/33=2) GFInput GFPrint 

MEP - Input generated by R.E.D.-III.x MOLECULE 

0 1 
  O        0.39169466     -3.28725454      7.29375517
  H        0.23222570     -4.23091893      7.15954907
  C        1.50895417      1.49594722      0.00000000
  C        1.10345779     -0.00000000      0.00000000
  H        0.00000000      0.00000000      0.00000000
  C        1.51125866     -0.77755604      1.25726870
  H        2.60751732     -0.79397410      1.33564608
  C        0.91828242     -0.08216617      2.51430416
  H       -0.17303464     -0.21782420      2.43374027
  C        0.95154593      1.91631250     -1.39585255
  H       -0.14021272      1.86733637     -1.27274396
  C        0.81499543      2.15604606      1.20441629
  H       -0.27319934      2.11350154      1.05148637
  H        1.07891235      3.21930795      1.28353941
  C        1.33579024     -0.79333378      3.84995997
  C        1.53412468     -0.50948923     -1.38916692
  H        0.94303283     -1.37097340     -1.71554245
  H        2.58222346     -0.83351215     -1.37754560
  C        1.17517928      1.44611129      2.52647095
  H        2.22706539      1.64489068      2.75540478
  H        0.59999021      1.90685014      3.33731300
  C        1.34477490      0.72523001     -2.32546708
  H        2.26894668      0.93295653     -2.87181477
  H        0.57325651      0.54506714     -3.08133382
  C        1.02234140     -2.23303484      1.18910913
  H        1.63097547     -2.80120819      0.47296552
  H       -0.00269628     -2.25738549      0.78301908
  C        1.24163925      3.35566625     -1.91340260
  H        1.31685474      4.00009448     -1.02400858
  C        3.03778680      1.69816854      0.09089829
  H        3.28312083      2.76579424      0.08560750
  H        3.45461910      1.27765212      1.00920603
  H        3.56819779      1.23167192     -0.74406571
  C        1.19467988     -2.31563226      3.70647716
  C        0.37555713     -0.32206402      4.98647768
  H       -0.65583532     -0.38838749      4.61288170
  H        0.55965113      0.73555325      5.20420570
  C        1.04087659     -2.92577603      2.52204314
  H        0.92150733     -4.00971226      2.50622814
  C        2.80154587     -0.46397902      4.24085760
  H        2.91214307      0.58509910      4.53273352
  H        3.13639398     -1.06907186      5.08698697
  H        3.48624452     -0.66366591      3.41083816
  C        1.23614819     -3.12543579      4.98920583
  H        1.03436085     -4.18027620      4.76241287
  H        2.23613847     -3.08558311      5.44389941
  C        0.47423124     -1.12413162      6.29225713
  H        1.45876092     -1.00043558      6.76042167
  H       -0.26441018     -0.75688396      7.01379248
  C        2.55479954      3.52747676     -2.71429153
  H        3.35437167      2.92726410     -2.26719132
  H        2.40631558      3.12773401     -3.72608379
  C        0.24362965     -2.60838268      6.04052796
  H       -0.78291224     -2.75210784      5.66457948
  C        0.04130811      3.86551018     -2.73745318
  H       -0.12963492      3.22656222     -3.61301103
  H        0.19660227      4.88711784     -3.09862760
  H       -0.87731142      3.86405894     -2.14032161
  C        3.04807141      4.98230082     -2.79804096
  H        2.29954388      5.61039777     -3.29576998
  H        3.13687974      5.37888777     -1.77671730
  C        4.41172189      5.15241654     -3.49271148
  H        5.16007482      4.56466178     -2.94145373
  H        4.72414125      6.20321363     -3.39975332
  C        4.48736126      4.75998312     -4.98387540
  H        4.19181239      3.70525012     -5.07842763
  C        5.93382867      4.87902940     -5.49036029
  H        6.61676010      4.25817044     -4.89909053
  H        6.01641744      4.56520795     -6.53722675
  H        6.28672920      5.91641233     -5.42562889
  C        3.53977892      5.59531807     -5.85937892
  H        2.49093719      5.46600091     -5.57349925
  H        3.63045913      5.31217450     -6.91423796
  H        3.77808397      6.66412581     -5.78067414



