%Mem=256MB 
%NProc=12 

#P HF/6-31G* SCF(Conver=6) NoSymm Test 
   Pop=chelpg IOp(6/33=2) GFInput GFPrint 

MEP - Input generated by R.E.D.-III.x MOLECULE 

0 1 
  O        4.19993750      6.56222757      4.11945250
  H        4.98105590      6.91081070      3.66968592
  C        0.00000000      0.00000000      0.00000000
  C        1.34549141      0.61933689     -0.47215245
  H        2.12787753      0.00000000     -0.00000000
  C        1.61278437      2.05471957      0.00000000
  H        0.84991974      2.72280454     -0.42438545
  C        1.54363956      2.12251258      1.54798827
  H        2.40666508      1.53751069      1.90701564
  C        0.08794950     -1.40603460     -0.69068795
  H        0.82290799     -1.98551199     -0.10935620
  C        0.03333479      0.01387574      1.54258797
  H        0.83707222     -0.65569053      1.88189508
  H       -0.89551370     -0.37342071      1.97300642
  C        1.75621866      3.57580018      2.10049699
  C        1.39858584      0.31085802     -1.97545786
  H        2.42064766      0.30839450     -2.36719972
  H        0.84374913      1.06620401     -2.54571861
  C        0.27551713      1.43160272      2.10055621
  H       -0.60588704      2.04522127      1.88593444
  H        0.33717314      1.36700510      3.19280516
  C        0.72350347     -1.08358562     -2.08738356
  H       -0.04739340     -1.08370507     -2.86729771
  H        1.45037909     -1.84990452     -2.37269866
  C        2.98739127      2.54535850     -0.48278305
  H        2.95555551      2.75690525     -1.55989826
  H        3.72774196      1.73621471     -0.36706900
  C       -1.18451598     -2.28541274     -0.80370799
  H       -1.90591870     -1.74965027     -1.43948730
  C       -1.22629090      0.78006114     -0.52801350
  H       -2.15482695      0.35482733     -0.13310796
  H       -1.20507344      1.83314570     -0.23721454
  H       -1.29351581      0.74831992     -1.61975391
  C        2.93375748      4.24845730      1.38082715
  C        2.10331477      3.48497606      3.61931476
  H        2.87748852      2.71573649      3.74831561
  H        1.22482241      3.13755892      4.17384166
  C        3.47045012      3.76411344      0.25112993
  H        4.32305952      4.28548486     -0.18557521
  C        0.48863917      4.45144962      1.91060006
  H       -0.33133809      4.11222553      2.55136807
  H        0.68154950      5.49705949      2.16305370
  H        0.14463267      4.42876332      0.87191512
  C        3.48309454      5.51389263      2.01293852
  H        4.37275471      5.84240688      1.46026077
  H        2.75134328      6.33160291      1.94871592
  C        2.60549890      4.79288334      4.24804947
  H        1.82455398      5.56345192      4.23813495
  H        2.86852704      4.62643299      5.29884934
  C       -0.85741535     -3.62541430     -1.51226329
  H       -0.18974883     -3.43429354     -2.35780508
  H       -0.29060617     -4.26255087     -0.81546056
  C        3.81943020      5.32756952      3.49955097
  H        4.64428249      4.60168125      3.59139762
  C       -1.85473674     -2.55623618      0.55537720
  H       -1.13564272     -2.98069543      1.26706583
  H       -2.68007951     -3.26781149      0.45646975
  H       -2.26910511     -1.64931351      1.00139174
  C       -2.08212834     -4.39921110     -2.02772919
  H       -2.79458213     -4.55935652     -1.20956738
  H       -2.61115685     -3.78123483     -2.76602071
  C       -1.75594374     -5.77766595     -2.63262489
  H       -2.70101875     -6.28214402     -2.88321500
  H       -1.28125114     -6.39465828     -1.85591291
  C       -0.85583654     -5.79721556     -3.88659897
  H        0.09868132     -5.31344401     -3.63462384
  C       -1.47608054     -5.03161805     -5.06608707
  H       -1.63667094     -3.97381232     -4.83385078
  H       -0.82778425     -5.08011012     -5.94841973
  H       -2.44676239     -5.46338345     -5.34297546
  C       -0.54279300     -7.24700133     -4.29042123
  H       -0.06484406     -7.79577186     -3.47074239
  H        0.12930644     -7.28340157     -5.15541741
  H       -1.46093469     -7.78477295     -4.56008856



