%Mem=256MB 
%NProc=12 

#P HF/6-31G* SCF(Conver=6) NoSymm Test 
   Pop=chelpg IOp(6/33=2) GFInput GFPrint 

MEP - Input generated by R.E.D.-III.x MOLECULE 

0 1 
  O        4.90870005     -0.18687231     -7.29376368
  H        5.86089824     -0.28280039     -7.15938554
  C        0.00000000      0.00000000      0.00000000
  C        1.55001620      0.00000000     -0.00000000
  H        1.83902867      1.06490536     -0.00000000
  C        2.19362607     -0.59721179     -1.25721845
  H        1.92290983     -1.65959625     -1.33535221
  C        1.67788368      0.15661663     -2.51444328
  H        2.09579877      1.17392876     -2.43507919
  C       -0.25936889      0.64704706      1.39637487
  H        0.07918048      1.68618910      1.27361039
  C       -0.45502259      0.84354470     -1.20393337
  H       -0.12919069      1.88260286     -1.05016514
  H       -1.55027536      0.86715678     -1.28346071
  C        2.25388799     -0.43487925     -3.84970663
  C        1.92902016     -0.54992197      1.38883392
  H        2.91411698     -0.20297745      1.71643335
  H        1.97009215     -1.64616895      1.37548554
  C        0.13573975      0.31068724     -2.52640962
  H       -0.33298358     -0.65156955     -2.75593999
  H       -0.15740007      0.98753246     -3.33672020
  C        0.78493962     -0.04866944      2.32532314
  H        0.34174872     -0.88930351      2.86610355
  H        1.15880748      0.64490547      3.08572007
  C        3.72629318     -0.50626466     -1.18928383
  H        4.11531039     -1.24072318     -0.47141737
  H        4.01827251      0.47765735     -0.78573937
  C       -1.72417485      0.75584345      1.91594180
  H       -2.36046179      0.86478181      1.02637370
  C       -0.59385809     -1.42306756     -0.09279422
  H       -1.68792648     -1.38106708     -0.09464253
  H       -0.29014158     -1.93693141     -1.00805837
  H       -0.28779996     -2.05513845      0.74569270
  C        3.75947498     -0.70004210     -3.70599937
  C        2.05286603      0.61459001     -4.98729013
  H        2.38879176      1.59224823     -4.61439630
  H        0.98412056      0.71573671     -5.20508165
  C        4.38928693     -0.70932742     -2.52191984
  H        5.46643234     -0.87945246     -2.50632587
  C        1.54905705     -1.76203983     -4.23914279
  H        0.50765322     -1.59191960     -4.52987708
  H        2.04330979     -2.24522338     -5.08558039
  H        1.56174322     -2.47455603     -3.40858538
  C        4.52913681     -0.95613445     -4.98842325
  H        5.59978707     -1.04054095     -4.76164802
  H        4.22586848     -1.91038183     -5.44190665
  C        2.80075523      0.30686327     -6.29283526
  H        2.42122725     -0.61003461     -6.76086790
  H        2.64209219      1.11609889     -7.01466642
  C       -2.23533861     -0.46299651      2.72302039
  H       -1.89870782     -1.39548803      2.25776909
  H       -1.77027753     -0.43750282      3.71779331
  C        4.29319038      0.13670771     -6.04080065
  H        4.70339900      1.08902289     -5.66586045
  C       -1.88446478      2.04718328      2.74463692
  H       -1.22037800      2.03460504      3.61813492
  H       -2.90781648      2.17688040      3.11082425
  H       -1.63441948      2.93214019      2.14901941
  C       -3.76525834     -0.55053386      2.90825013
  H       -3.96400624     -1.32639436      3.65818474
  H       -4.14343447      0.38479886      3.33791599
  C       -4.53748368     -0.88681072      1.62112954
  H       -4.12451151     -1.81471176      1.19913082
  H       -4.35728600     -0.10564858      0.87062059
  C       -6.06822192     -1.06147896      1.76549733
  H       -6.44013407     -1.29551135      0.75692131
  C       -6.77235812      0.22912374      2.21672781
  H       -6.51074819      1.07406298      1.56884872
  H       -7.86140531      0.10983523      2.18594225
  H       -6.50273775      0.49916392      3.24424739
  C       -6.45023912     -2.24439738      2.67087592
  H       -5.95487843     -3.16854354      2.35039447
  H       -7.53184754     -2.41966399      2.64575205
  H       -6.17410526     -2.06158039      3.71568155



