%Mem=256MB 
%NProc=12 

#P HF/6-31G* SCF(Conver=6) NoSymm Test 
   Pop=chelpg IOp(6/33=2) GFInput GFPrint 

MEP - Input generated by R.E.D.-III.x MOLECULE 

0 1 
  O        0.42322962     -3.35448611      7.26801715
  H        0.25195144     -4.29482629      7.12528006
  C        1.51048609      1.50238892      0.00000000
  C        1.10337391     -0.00000000     -0.00000000
  H        0.00000000      0.00000000      0.00000000
  C        1.51082791     -0.79262077      1.24884093
  H        2.60715411     -0.82639846      1.31759722
  C        0.94214235     -0.10446216      2.51870596
  H       -0.15233056     -0.22035384      2.45008671
  C        0.93109402      1.91371407     -1.39789047
  H       -0.15803024      1.85117783     -1.26824642
  C        0.84040788      2.14274567      1.23125885
  H       -0.25065650      2.10388374      1.10387169
  H        1.10847446      3.20176418      1.32565041
  C        1.36365178     -0.83483102      3.84232417
  C        1.53811436     -0.51124303     -1.38536966
  H        0.96296591     -1.38573870     -1.70570543
  H        2.59249302     -0.81419856     -1.37211715
  C        1.22805612      1.41612048      2.53580298
  H        2.29065222      1.59378583      2.73170640
  H        0.68696501      1.88262614      3.36673776
  C        1.32023572      0.71356814     -2.31969754
  H        2.22755820      0.92955242     -2.89265197
  H        0.53012674      0.53001268     -3.05616565
  C        1.00322030     -2.24147695      1.16932766
  H        1.59791134     -2.80964459      0.44167341
  H       -0.02605556     -2.24954842      0.77348472
  C        1.16942955      3.29702854     -2.06999304
  H        0.65194199      3.20431666     -3.03922691
  C        3.04448404      1.68406148      0.07572051
  H        3.30134047      2.73526399      0.23562187
  H        3.48331628      1.11874506      0.90160644
  H        3.54649112      1.35878619     -0.83917067
  C        1.20258666     -2.35342180      3.68385176
  C        0.41947969     -0.36460542      4.99270490
  H       -0.61596588     -0.41521966      4.62801946
  H        0.61767378      0.68857156      5.21961453
  C        1.02742508     -2.94840537      2.49468266
  H        0.89404561     -4.03051870      2.46850837
  C        2.83647795     -0.52585002      4.22251250
  H        2.96171308      0.52000739      4.52004639
  H        3.17147543     -1.14051278      5.06166614
  H        3.51159543     -0.72770791      3.38515507
  C        1.24755906     -3.17761955      4.95714538
  H        1.03131702     -4.22755294      4.72108027
  H        2.25237535     -3.15408082      5.40218657
  C        0.52081115     -1.18173896      6.28897731
  H        1.51077143     -1.07420050      6.74962147
  H       -0.20720658     -0.81410131      7.02103879
  C        0.50257588      4.49155183     -1.34694853
  H        0.94473118      4.61555511     -0.34952290
  H        0.77036234      5.40169956     -1.90282055
  C        0.27116342     -2.66056188      6.02352442
  H       -0.76044160     -2.78867047      5.65587936
  C        2.62899259      3.66485172     -2.40634920
  H        3.18345830      3.99626031     -1.52362268
  H        2.64229809      4.49203736     -3.12516487
  H        3.18251004      2.83557659     -2.85618142
  C       -1.02889217      4.44462901     -1.22823615
  H       -1.45460994      4.26474141     -2.22494560
  H       -1.33197339      3.59641886     -0.60448603
  C       -1.60458246      5.74377393     -0.64088624
  H       -1.28794399      6.58571179     -1.27341623
  H       -1.14594644      5.91677892      0.34354035
  C       -3.14112608      5.81046683     -0.47842741
  H       -3.35580112      6.80149681     -0.05178594
  C       -3.67941649      4.76656992      0.51413012
  H       -3.15906597      4.82594296      1.47733686
  H       -4.74796097      4.92208380      0.70196484
  H       -3.56076729      3.74610538      0.13192662
  C       -3.88303209      5.72784634     -1.82283693
  H       -3.50916703      6.47601653     -2.53175908
  H       -4.95631745      5.90364392     -1.68725100
  H       -3.77003048      4.74134610     -2.28709612



