%Mem=256MB 
%NProc=12 

#P HF/6-31G* SCF(Conver=6) NoSymm Test 
   Pop=chelpg IOp(6/33=2) GFInput GFPrint 

MEP - Input generated by R.E.D.-III.x MOLECULE 

0 1 
  O        4.22375428      6.54629078      4.12311393
  H        5.00360418      6.89510277      3.67132901
  C        0.00000000      0.00000000      0.00000000
  C        1.34561177      0.61954182     -0.47244435
  H        2.12759115      0.00000000     -0.00000000
  C        1.61383548      2.05465659      0.00000000
  H        0.84928314      2.72289255     -0.42117834
  C        1.54918013      2.11963909      1.54816687
  H        2.41164427      1.53161976      1.90353762
  C        0.08962064     -1.40553190     -0.69181080
  H        0.82912692     -1.98196074     -0.11315269
  C        0.03535867      0.01346195      1.54272284
  H        0.83794408     -0.65797059      1.88101762
  H       -0.89361638     -0.37171317      1.97470145
  C        1.76676283      3.57075207      2.10425480
  C        1.40030502      0.31124456     -1.97568733
  H        2.42327619      0.30469247     -2.36501439
  H        0.85006437      1.06923239     -2.54697112
  C        0.28063309      1.43040478      2.10154906
  H       -0.59975899      2.04589194      1.88803739
  H        0.34300517      1.36472564      3.19369430
  C        0.71931536     -1.08007632     -2.08990263
  H       -0.05666315     -1.07140480     -2.86462838
  H        1.43891620     -1.85003910     -2.38367468
  C        2.98700351      2.54555538     -0.48657941
  H        2.95130375      2.76010914     -1.56297405
  H        3.72700475      1.73538530     -0.37601962
  C       -1.17771752     -2.29371090     -0.80348539
  H       -1.90386977     -1.75572506     -1.42967300
  C       -1.22759512      0.77854021     -0.52633386
  H       -2.15504602      0.34817379     -0.13418923
  H       -1.21059483      1.83056538     -0.23115652
  H       -1.29319091      0.75102556     -1.61832029
  C        2.94292322      4.24320853      1.38225589
  C        2.11970523      3.47428415      3.62137957
  H        2.89276938      2.70300869      3.74467258
  H        1.24276133      3.12667113      4.17827186
  C        3.47440405      3.76152202      0.24898138
  H        4.32618879      4.28282893     -0.18938915
  C        0.50068431      4.45009742      1.92175712
  H       -0.31801330      4.11134653      2.56444649
  H        0.69735310      5.49443616      2.17658804
  H        0.15296786      4.43143172      0.88423511
  C        3.49702809      5.50567861      2.01614480
  H        4.38511082      5.83428090      1.46098896
  H        2.76647055      6.32489772      1.95733055
  C        2.62704907      4.77908757      4.25245615
  H        1.84752421      5.55114369      4.24844558
  H        2.89403905      4.60853964      5.30159990
  C       -0.82395510     -3.62139521     -1.52189195
  H       -0.31860085     -3.39460272     -2.46658767
  H       -0.08291889     -4.15514421     -0.90809915
  C        3.83889259      5.31416871      3.50086241
  H        4.66298170      4.58671878      3.58723640
  C       -1.84264714     -2.57784644      0.55420499
  H       -1.13590009     -3.05235714      1.24680229
  H       -2.69881064     -3.25012302      0.44439736
  H       -2.21369264     -1.66723505      1.02909983
  C       -1.98907506     -4.58851347     -1.81345539
  H       -1.57031777     -5.48157741     -2.29474108
  H       -2.42090677     -4.94707519     -0.87113917
  C       -3.13172455     -4.02917886     -2.68227999
  H       -3.61666855     -3.19856162     -2.15160508
  H       -3.90194749     -4.80845408     -2.78144602
  C       -2.75172118     -3.54586585     -4.09803523
  H       -1.99010768     -2.75871619     -4.00075061
  C       -3.97311920     -2.92073524     -4.79118289
  H       -4.38479558     -2.09126140     -4.20463622
  H       -3.71381891     -2.53383977     -5.78332394
  H       -4.77072083     -3.66333250     -4.92218916
  C       -2.15807024     -4.66921382     -4.96304202
  H       -1.23792966     -5.07905442     -4.53423620
  H       -1.91848609     -4.30389387     -5.96816146
  H       -2.87273632     -5.49549963     -5.07158613



