%Mem=256MB 
%NProc=12 

#P HF/6-31G* SCF(Conver=6) NoSymm Test 
   Pop=chelpg IOp(6/33=2) GFInput GFPrint 

MEP - Input generated by R.E.D.-III.x MOLECULE 

0 1 
  O        4.16099660      6.53872726      4.15419132
  H        4.93862215      6.89665532      3.70571599
  C        0.00000000      0.00000000      0.00000000
  C        1.34117349      0.61318547     -0.47701433
  H        2.12480606      0.00000000      0.00000000
  C        1.59899936      2.04762009      0.00000000
  H        0.83203829      2.71413265     -0.41919845
  C        1.53052601      2.10016037      1.55173353
  H        2.40104532      1.52029391      1.90075731
  C        0.09989581     -1.40244835     -0.67747671
  H        0.90970124     -1.90608980     -0.12970686
  C        0.02808676     -0.01610254      1.53846665
  H        0.83083315     -0.69086032      1.86962465
  H       -0.90791500     -0.41684873      1.95046381
  C        1.73471832      3.55090747      2.11537077
  C        1.39403121      0.28511794     -1.98181191
  H        2.42032033      0.23913651     -2.35954443
  H        0.87783734      1.05629970     -2.56701233
  C        0.27212034      1.39374760      2.11668678
  H       -0.61483657      2.00742264      1.92934023
  H        0.35621881      1.31373087      3.20623364
  C        0.65920900     -1.08709716     -2.10057617
  H       -0.14334932     -1.02544159     -2.84073718
  H        1.33395294     -1.87895295     -2.44221753
  C        2.97092372      2.54991445     -0.47710404
  H        2.93871205      2.76688246     -1.55321061
  H        3.71600922      1.74461055     -0.36513276
  C       -1.11947890     -2.36582386     -0.58375174
  H       -1.62659688     -2.13914497      0.36672964
  C       -1.22808892      0.79202648     -0.50097586
  H       -2.15396614      0.32667648     -0.14567011
  H       -1.22804679      1.82322277     -0.13971898
  H       -1.27633406      0.83557643     -1.59271557
  C        2.90668751      4.23768083      1.39932423
  C        2.08484584      3.45099064      3.63301457
  H        2.86399476      2.68563413      3.75507814
  H        1.20950522      3.09415668      4.18645718
  C        3.44547787      3.76695492      0.26489182
  H        4.29338308      4.29848608     -0.16863819
  C        0.46191726      4.42082477      1.93388681
  H       -0.35521690      4.07346335      2.57390245
  H        0.65013043      5.46560423      2.19313029
  H        0.11625849      4.40359371      0.89569489
  C        3.44737195      5.50225481      2.04073456
  H        4.33332266      5.84213416      1.48899656
  H        2.70916010      6.31479398      1.98471319
  C        2.57945855      4.75717088      4.27126248
  H        1.79319718      5.52239366      4.26911696
  H        2.84545597      4.58389322      5.32021218
  C       -2.17299536     -2.22416967     -1.70863798
  H       -2.31824685     -1.16889082     -1.96311387
  H       -1.78611321     -2.70387037     -2.61735948
  C        3.78819404      5.30642304      3.52505442
  H        4.61839212      4.58570316      3.60941338
  C       -0.62600088     -3.82460131     -0.49296167
  H       -0.05475928     -4.09905169     -1.38875047
  H       -1.45553679     -4.53270942     -0.39969571
  H        0.02738851     -3.96761218      0.37482877
  C       -3.54755124     -2.81695155     -1.35360286
  H       -3.45818127     -3.89058189     -1.14899520
  H       -3.88983229     -2.36279094     -0.41293715
  C       -4.63573066     -2.58107060     -2.41721692
  H       -4.75337912     -1.49728271     -2.56190798
  H       -5.59740124     -2.93938248     -2.02070225
  C       -4.41315818     -3.23466548     -3.79800306
  H       -3.46069732     -2.86575136     -4.20478512
  C       -5.52419605     -2.80858914     -4.77115296
  H       -5.57207805     -1.71803188     -4.87041673
  H       -5.36190469     -3.22958118     -5.76998298
  H       -6.50517068     -3.15421851     -4.42026639
  C       -4.32833099     -4.76703090     -3.71515532
  H       -3.49244024     -5.10184657     -3.09249635
  H       -4.19338430     -5.20562991     -4.71041463
  H       -5.25004870     -5.18537493     -3.28999833



