%Mem=256MB 
%NProc=12 

#P HF/6-31G* SCF(Conver=6) NoSymm Test 
   Pop=chelpg IOp(6/33=2) GFInput GFPrint 

MEP - Input generated by R.E.D.-III.x MOLECULE 

0 1 
  O        4.99588009     -0.22323138     -7.25553270
  H        5.94717868     -0.31127544     -7.10985702
  C        0.00000000      0.00000000      0.00000000
  C        1.55451261      0.00000000     -0.00000000
  H        1.84025818      1.06614088      0.00000000
  C        2.21286170     -0.60332512     -1.24754712
  H        1.94588629     -1.66731045     -1.31867130
  C        1.70981558      0.13372498     -2.51642404
  H        2.11552458      1.15640816     -2.44237147
  C       -0.26676735      0.64559990      1.40427733
  H       -0.00632793      1.70910904      1.29460280
  C       -0.43631274      0.82110283     -1.23066404
  H       -0.11252841      1.86279807     -1.09098862
  H       -1.52569598      0.84527958     -1.33606792
  C        2.30456743     -0.46378295     -3.84008440
  C        1.93840257     -0.55038096      1.38266205
  H        2.93154987     -0.21904434      1.70204912
  H        1.96060212     -1.64722251      1.37127874
  C        0.16916754      0.26560150     -2.53664986
  H       -0.28479104     -0.70940835     -2.74315317
  H       -0.13396564      0.91837186     -3.36308666
  C        0.81296390     -0.02441424      2.31685775
  H        0.36871298     -0.84795689      2.88819833
  H        1.19974120      0.68583368      3.05429393
  C        3.74472589     -0.50776866     -1.16149812
  H        4.12812457     -1.23747225     -0.43590611
  H        4.02910317      0.47901454     -0.75949867
  C       -1.68705609      0.58114054      2.01820000
  H       -1.93669301     -0.48307535      2.14333749
  C       -0.59391533     -1.42605975     -0.05802304
  H       -1.68752171     -1.38672593     -0.10273302
  H       -0.25580206     -1.98154657     -0.93619319
  H       -0.32527555     -2.01903820      0.82149376
  C        3.80977516     -0.71760287     -3.67694862
  C        2.10961048      0.57640312     -4.98706657
  H        2.43619022      1.55851345     -4.61759213
  H        1.04265091      0.67011916     -5.21676804
  C        4.42473536     -0.71508744     -2.48505642
  H        5.50270147     -0.87798348     -2.45489802
  C        1.61239881     -1.79804790     -4.22768610
  H        0.57312245     -1.63637001     -4.53068062
  H        2.11879588     -2.28424835     -5.06519039
  H        1.62038100     -2.50460972     -3.39196193
  C        4.59652700     -0.97692905     -4.94836816
  H        5.66513641     -1.05102169     -4.70866421
  H        4.30605117     -1.93703848     -5.39788490
  C        2.87349097      0.26337958     -6.28193095
  H        2.50541165     -0.65993026     -6.74644941
  H        2.71725690      1.06558816     -7.01209168
  C       -1.72788623      1.16034339      3.46190664
  H       -2.75765108      1.05864661      3.83353263
  H       -1.12217772      0.50418478      4.09826335
  C        4.36417020      0.10585431     -6.01212332
  H        4.76339789      1.06406653     -5.64032904
  C       -2.77973727      1.18544843      1.11519258
  H       -2.50732225      2.17749369      0.74176087
  H       -3.72284275      1.28490083      1.66427178
  H       -2.97667056      0.55284816      0.24530611
  C       -1.25572977      2.60946954      3.71801091
  H       -1.08154756      2.69582859      4.79819124
  H       -0.27760725      2.76997569      3.24865349
  C       -2.22892494      3.72333033      3.29218068
  H       -3.23292320      3.47518237      3.66601963
  H       -2.31074583      3.74775563      2.19953241
  C       -1.87458078      5.15194332      3.77210289
  H       -2.64993933      5.80957116      3.35186244
  C       -0.52302204      5.64118686      3.22531083
  H       -0.47546221      5.54520632      2.13408419
  H       -0.35963764      6.69587657      3.47472856
  H        0.31325857      5.07229848      3.64791181
  C       -1.93987848      5.30485424      5.30099749
  H       -2.90588792      4.96707761      5.69441371
  H       -1.80935447      6.35341744      5.59214952
  H       -1.15421466      4.72847887      5.80285261



