%Mem=256MB 
%NProc=12 

#P HF/6-31G* SCF(Conver=6) NoSymm Test 
   Pop=chelpg IOp(6/33=2) GFInput GFPrint 

MEP - Input generated by R.E.D.-III.x MOLECULE 

0 1 
  O        4.96653143     -0.23184969     -7.27122395
  H        5.91913980     -0.31201468     -7.12961216
  C        0.00000000      0.00000000      0.00000000
  C        1.55668445      0.00000000     -0.00000000
  H        1.84540911      1.06488846      0.00000000
  C        2.21458325     -0.60084198     -1.24890122
  H        1.96042055     -1.66784645     -1.31699080
  C        1.69901543      0.12722833     -2.51897695
  H        2.09804548      1.15301137     -2.45149463
  C       -0.24542466      0.66485978      1.39927120
  H        0.10176314      1.69953672      1.27090939
  C       -0.44262328      0.81471204     -1.23096924
  H       -0.11893511      1.85734691     -1.10368492
  H       -1.53494121      0.83434041     -1.32480785
  C        2.29257319     -0.47262758     -3.84222843
  C        1.93706461     -0.55425618      1.38499559
  H        2.93045277     -0.22528868      1.70611390
  H        1.95712599     -1.65107783      1.37023594
  C        0.15660266      0.25045622     -2.53586293
  H       -0.29374479     -0.72810071     -2.73233129
  H       -0.15144678      0.89554501     -3.36640568
  C        0.80994870     -0.02825881      2.31959522
  H        0.36254435     -0.85034147      2.88733835
  H        1.19209342      0.68250033      3.06064614
  C        3.74588010     -0.48976814     -1.17015418
  H        4.13919296     -1.21152012     -0.44191035
  H        4.02296795      0.50206069     -0.77559598
  C       -1.64145369      0.79747663      2.07319292
  H       -1.41417489      1.25277387      3.04927292
  C       -0.57554331     -1.43341951     -0.07728424
  H       -1.65710170     -1.40732487     -0.23835004
  H       -0.14343529     -2.00371083     -0.90324789
  H       -0.39331159     -2.00353916      0.83733834
  C        3.80055646     -0.71418929     -3.68451335
  C        2.08481921      0.55971803     -4.99413928
  H        2.40555140      1.54635016     -4.63164729
  H        1.01621885      0.64403287     -5.21978015
  C        4.42127542     -0.69939334     -2.49568950
  H        5.50062968     -0.85363894     -2.46987114
  C        1.60883534     -1.81404149     -4.21982529
  H        0.56627392     -1.66205463     -4.51646325
  H        2.11359650     -2.29929571     -5.05887479
  H        1.62812432     -2.51725201     -3.38147656
  C        4.58339457     -0.97522159     -4.95800285
  H        5.65357667     -1.04001311     -4.72270256
  H        4.29806456     -1.94009348     -5.40062083
  C        2.84525124      0.24505528     -6.29060247
  H        2.48182952     -0.68343184     -6.74836411
  H        2.67998630      1.04205919     -7.02446084
  C       -2.61619721      1.75965158      1.35056995
  H       -2.86637238      1.34158459      0.36726081
  H       -3.55797414      1.76061542      1.91845221
  C        4.33825610      0.09973335     -6.02672252
  H        4.73227289      1.06289376     -5.66226384
  C       -2.38775343     -0.51348824      2.39420284
  H       -2.85238812     -0.95138428      1.50595501
  H       -3.19085820     -0.31154350      3.11212077
  H       -1.73788394     -1.27226408      2.83979482
  C       -2.17350170      3.22487250      1.17012234
  H       -1.26487251      3.27107392      0.55925152
  H       -2.95213733      3.73151412      0.58594060
  C       -1.95611559      3.98142011      2.49123863
  H       -1.12806703      3.51847721      3.04442198
  H       -2.84958120      3.85245057      3.11996564
  C       -1.66081923      5.49585261      2.37364807
  H       -1.52036782      5.85559531      3.40374672
  C       -2.83647952      6.28816804      1.77790409
  H       -3.76730778      6.09066923      2.32250660
  H       -2.64344658      7.36592404      1.82708279
  H       -3.00473189      6.03537001      0.72479023
  C       -0.35670739      5.78693316      1.61247004
  H        0.48739584      5.23312126      2.04022787
  H       -0.11067027      6.85414765      1.65417601
  H       -0.43637797      5.51131953      0.55455788



