%Mem=256MB 
%NProc=12 

#P HF/6-31G* SCF(Conver=6) NoSymm Test 
   Pop=mk IOp(6/33=2) GFInput GFPrint 

MEP - Input generated by R.E.D.-III.x MOLECULE 

0 1 
  O        6.11828005      3.72790283      0.00000000
  H        5.84765736      3.74286879     -0.92889413
  O        0.00000000      0.00000000      0.00000000
  H       -0.11332180     -0.16220323     -0.94710444
  C        8.82902294      0.07789874      0.40742537
  C        7.90226151      1.26877715      0.79028767
  H        7.68108824      1.12284416      1.86204729
  C        6.53059459      1.28748981      0.09196759
  H        6.67041126      1.40678035     -0.99256734
  C        5.78584358     -0.04727878      0.37272736
  H        5.57609657     -0.04821579      1.45509673
  C       10.08332461      0.41163252      1.28913607
  H        9.80259987      0.15469993      2.32318814
  C        8.06563256     -1.21091627      0.77295900
  H        7.93784403     -1.24608368      1.86460718
  H        8.62710847     -2.10905134      0.49764109
  C        4.38464335     -0.13532782     -0.32648320
  C        8.81617800      2.50054532      0.70142427
  H        8.44763757      3.33822136      1.29794896
  H        8.87394080      2.86502046     -0.32967925
  C        6.68448283     -1.27348355      0.09342721
  H        6.83016480     -1.38735546     -0.98628002
  H        6.17623234     -2.18511070      0.42667636
  C       10.19047253      1.97142436      1.19141551
  H       10.98777151      2.25614372      0.49426023
  H       10.45972044      2.40506668      2.15933327
  C        5.67747137      2.47896654      0.56942868
  H        5.83839887      2.62225703      1.64740508
  C       11.43492711     -0.29689695      1.00762718
  H       11.75960172      0.00000000      0.00000000
  C        9.20774139      0.08509160     -1.09141242
  H        8.33002137      0.06495072     -1.74278742
  H        9.78896911      0.97170814     -1.36142528
  H        9.81480659     -0.79125746     -1.34147377
  C        3.61632301      1.17449281     -0.11914649
  C        3.56827112     -1.28911618      0.33595333
  H        3.65350524     -1.18752901      1.42668602
  H        4.02194083     -2.25174437      0.07755881
  C        4.20807858      2.29920332      0.30913897
  H        3.60757503      3.19438418      0.47074772
  C        4.51689952     -0.40192864     -1.84996621
  H        4.89974765     -1.40797950     -2.04717374
  H        3.55244565     -0.31927402     -2.35788406
  H        5.19185351      0.31899610     -2.32139002
  C        2.12741242      1.15844002     -0.41017127
  H        1.67556634      2.11398431     -0.12645921
  H        1.96139457      1.03938886     -1.49319361
  C        2.07623525     -1.32183541     -0.02961564
  H        1.94704213     -1.53435404     -1.10132809
  H        1.57588407     -2.13202249      0.51286461
  C       12.50310451      0.20003233      2.01565841
  H       12.52437601      1.29474458      2.00470768
  H       12.17487862     -0.08145008      3.02748908
  C        1.39835128      0.00785565      0.29938691
  H        1.43961543      0.17434103      1.38272957
  C       11.33939800     -1.83193195      1.04086404
  H       10.94850409     -2.18111905      2.00506162
  H       12.32047630     -2.29406847      0.89598254
  H       10.68734922     -2.22134212      0.25610734
  C       13.94237995     -0.31717767      1.81864237
  H       14.56144698      0.10212526      2.62205258
  H       13.97298338     -1.40300137      1.97087890
  C       14.59340796     -0.00545995      0.45762160
  H       14.02936709     -0.51143434     -0.33776607
  H       15.59638353     -0.45741403      0.44420179
  C       14.73266248      1.48517974      0.08220387
  H       13.73003675      1.93653477      0.08449607
  C       15.29600783      1.62355390     -1.34136583
  H       16.30370273      1.19327192     -1.40650077
  H       15.36409843      2.67514468     -1.64261412
  H       14.66560257      1.10509432     -2.07307096
  C       15.60069181      2.26474001      1.08287797
  H       16.61048041      1.83732741      1.13743360
  H       15.70029442      3.31335442      0.78030106
  H       15.17900898      2.25292276      2.09307727



