%Mem=256MB 
%NProc=12 

#P HF/6-31G* SCF(Conver=6) NoSymm Test 
   Pop=mk IOp(6/33=2) GFInput GFPrint 

MEP - Input generated by R.E.D.-III.x MOLECULE 

0 1 
  O        0.00000000      0.00000000      0.00000000
  H        0.96763320     -0.00000000     -0.00000000
  O        1.64342504     -2.74315948      6.41150447
  H        2.58214249     -2.51612830      6.47006434
  C       -1.19470389      4.10537483      1.59797275
  C       -1.28795403      2.61056387      1.17331527
  H       -2.25916973      2.26373915      1.56748934
  C       -0.23779307      1.67915626      1.80499883
  H        0.76762093      1.97909195      1.47460154
  C       -0.32184990      1.77481417      3.35393720
  H       -1.30373388      1.35263943      3.62450088
  C       -2.38324220      4.70258024      0.76553980
  H       -3.30346295      4.38284619      1.28031466
  C       -1.35532657      4.13999315      3.13097109
  H       -2.36940158      3.79941679      3.38574497
  H       -1.26066548      5.15555466      3.52770402
  C        0.73657372      0.88074797      4.08924610
  C       -1.43563600      2.66258315     -0.35505468
  H       -1.89143698      1.75707147     -0.76201331
  H       -0.45515410      2.75051002     -0.83497690
  C       -0.32132915      3.24285586      3.83765516
  H        0.67399153      3.67847514      3.69790758
  H       -0.51529380      3.27436883      4.91554094
  C       -2.29762017      3.93065144     -0.59514685
  H       -1.84890926      4.56684014     -1.36770347
  H       -3.29613668      3.66686603     -0.95688901
  C       -0.44273225      0.21964960      1.35426149
  H       -1.52086546      0.01082465      1.30437639
  C       -2.49288691      6.23789823      0.57314457
  H       -1.61283249      6.56812302      0.00000000
  C        0.14118941      4.75568492      1.17061555
  H        1.00919607      4.22611380      1.57201420
  H        0.25331617      4.78018186      0.08268964
  H        0.20087776      5.78911163      1.52760623
  C        0.77084407     -0.51397342      3.45496392
  C        0.30829992      0.72633345      5.58230220
  H       -0.76138625      0.47665416      5.60848324
  H        0.41488170      1.68887124      6.09362489
  C        0.21244969     -0.78050016      2.26514496
  H        0.23774373     -1.79813797      1.87546544
  C        2.15941839      1.49722077      4.01926272
  H        2.22626326      2.41428831      4.61262975
  H        2.91525291      0.80820377      4.40506529
  H        2.43776034      1.73617155      2.98826735
  C        1.46404188     -1.61395996      4.23688334
  H        1.33219633     -2.57708667      3.73416302
  H        2.54849093     -1.42012359      4.26948514
  C        1.07325539     -0.34897216      6.36940543
  H        2.13504247     -0.07613019      6.46182907
  H        0.67785726     -0.41830172      7.38915436
  C       -3.74312017      6.58076368     -0.27546362
  H       -3.76137703      5.94220827     -1.16633445
  H       -4.63885440      6.31739648      0.30567409
  C        0.96710148     -1.71237085      5.68683105
  H       -0.08218143     -2.03182671      5.68273608
  C       -2.51689708      7.02052957      1.89799653
  H       -3.33433814      6.67427255      2.54321471
  H       -2.66364660      8.09040917      1.72276980
  H       -1.58453380      6.91579088      2.45702529
  C       -3.83252848      8.04214858     -0.74741211
  H       -3.97077691      8.71585812      0.10600879
  H       -2.87028884      8.32355168     -1.19851973
  C       -4.93759383      8.30049215     -1.78842907
  H       -4.74023763      7.67397173     -2.67032250
  H       -4.85910627      9.34235965     -2.13312138
  C       -6.39135312      8.05319316     -1.33196115
  H       -6.47590633      7.00692893     -1.00487521
  C       -7.35745012      8.24581383     -2.51190687
  H       -7.32173470      9.27861695     -2.88200396
  H       -8.39200614      8.03406089     -2.21845318
  H       -7.10382094      7.58414810     -3.34813280
  C       -6.79670245      8.95043168     -0.15174362
  H       -6.70551743     10.01119943     -0.41973136
  H       -7.83840811      8.76988544      0.13708088
  H       -6.17545723      8.77583931      0.73271281



