%Mem=256MB 
%NProc=12 

#P HF/6-31G* SCF(Conver=6) NoSymm Test 
   Pop=mk IOp(6/33=2) GFInput GFPrint 

MEP - Input generated by R.E.D.-III.x MOLECULE 

0 1 
  O        0.00000000      0.00000000      0.00000000
  H       -0.22666291      0.13977636      0.93027140
  O       -2.97474444      6.51802326      0.00000000
  H       -2.97183663      6.71945482      0.94635029
  C        4.28849767      1.50259579     -0.42333192
  C        2.85313323      1.03285724     -0.79961860
  H        2.74808287      1.27472334     -1.87161636
  C        1.70952583      1.78918997     -0.10032391
  H        1.76159585      1.61587817      0.98471473
  C        1.84102374      3.31128390     -0.38733086
  H        1.66245480      3.42533701     -1.46929227
  C        5.13421815      0.51845726     -1.30419922
  H        5.02159042      0.87848773     -2.33751268
  C        4.38001473      2.99498061     -0.79692380
  H        4.29071406      3.09102584     -1.88871787
  H        5.35078800      3.42224367     -0.52586769
  C        0.73329635      4.17261130      0.31402169
  C        2.92023381     -0.50049292     -0.70696665
  H        2.15236294     -0.98792592     -1.31216867
  H        2.75084595     -0.83352965      0.32241403
  C        3.27401502      3.82506757     -0.11764262
  H        3.46346021      3.84479617      0.96104750
  H        3.36168294      4.86286947     -0.45781559
  C        4.36208400     -0.83525342     -1.17695837
  H        4.86135705     -1.49222984     -0.45481009
  H        4.36000473     -1.37436721     -2.12989570
  C        0.33316348      1.28068980     -0.57178027
  H        0.38184618      1.07091014     -1.64980212
  C        6.65143280      0.36418118     -1.03190068
  H        6.76189338     -0.00000000     -0.00000000
  C        4.60426974      1.29447614      1.07533932
  H        3.89216280      1.80882749      1.72595565
  H        4.58884273      0.23655269      1.35349496
  H        5.59972849      1.68158209      1.31774600
  C       -0.63830135      3.51820273      0.11617559
  C        0.70064678      5.58302485     -0.35398323
  H        0.70815575      5.44663037     -1.44422156
  H        1.61749683      6.12675585     -0.10295072
  C       -0.78138419      2.25399659     -0.30788783
  H       -1.78140744      1.84907278     -0.46298970
  C        1.00005109      4.32536596      1.83550138
  H        1.88314603      4.94310158      2.02551617
  H        0.15844900      4.80131562      2.34550758
  H        1.15537093      3.35175062      2.31031778
  C       -1.86041665      4.36737766      0.41147360
  H       -2.77199087      3.82853449      0.13506284
  H       -1.92480146      4.56291212      1.49416826
  C       -0.51431160      6.44840985      0.01471683
  H       -0.49578615      6.70182042      1.08515273
  H       -0.47738828      7.39731469     -0.53233162
  C        7.30333410     -0.72637337     -1.92575224
  H        8.34079138     -0.84485778     -1.58639763
  H        6.81621893     -1.69131543     -1.73624270
  C       -1.82318267      5.72623089     -0.30341585
  H       -1.88900369      5.56106047     -1.38574687
  C        7.44136276      1.68242395     -1.13751825
  H        7.24972742      2.19939065     -2.08448448
  H        8.51895829      1.48858398     -1.07757082
  H        7.19263630      2.37495174     -0.32942500
  C        7.29389879     -0.46288373     -3.44096353
  H        6.26128100     -0.30606415     -3.77752491
  H        7.82545079      0.47014829     -3.66443326
  C        7.88555586     -1.61153843     -4.28036530
  H        7.72897591     -1.38406857     -5.34538399
  H        7.30656975     -2.52433254     -4.07816841
  C        9.38214985     -1.92927120     -4.07452742
  H        9.54183122     -2.17107190     -3.01408969
  C       10.28846805     -0.73960296     -4.42880061
  H       10.15009046     -0.44375599     -5.47699881
  H       11.34484037     -0.99874451     -4.29419221
  H       10.08289522      0.13690835     -3.80589182
  C        9.77727535     -3.16930130     -4.89261972
  H        9.64271194     -2.98827786     -5.96688976
  H       10.82798655     -3.43552453     -4.73007350
  H        9.16540737     -4.03772073     -4.62270394



