%Mem=256MB 
%NProc=12 

#P HF/6-31G* SCF(Conver=6) NoSymm Test 
   Pop=mk IOp(6/33=2) GFInput GFPrint 

MEP - Input generated by R.E.D.-III.x MOLECULE 

0 1 
  O        6.70059560      0.90212058      0.00000000
  H        7.05058778      0.00000000     -0.00000000
  O        9.78687922      0.33266669     -6.44116998
  H        9.91254716     -0.62499931     -6.49811801
  C        2.42693127      0.52599169     -1.55621964
  C        3.78973358      1.15370721     -1.14308656
  H        3.75812231      2.18420069     -1.53778590
  C        5.03108796      0.51085615     -1.78698805
  H        5.11859857     -0.53433189     -1.45568485
  C        4.89608809      0.55273364     -3.33507632
  H        4.93736586      1.62033325     -3.60730048
  C        1.45119800      1.41705383     -0.71165370
  H        1.43163456      2.39431613     -1.21654557
  C        2.31889034      0.66688063     -3.08705756
  H        2.26758464      1.73596087     -3.33944736
  H        1.40072225      0.21229282     -3.47265034
  C        6.10310812     -0.11721725     -4.07985025
  C        3.70271787      1.27355905      0.38740888
  H        4.37314690      2.03973180      0.78362659
  H        3.99962803      0.33459515      0.86638999
  C        3.52099732      0.02747134     -3.80800623
  H        3.47261013     -1.05852175     -3.67326931
  H        3.41210147      0.20245496     -4.88409116
  C        2.20458588      1.58911598      0.64772588
  H        1.79110066      0.90808634      1.40118071
  H        2.07000888      2.60076445      1.04373824
  C        6.32260301      1.23040692     -1.35181300
  H        6.12858859      2.31142672     -1.30426380
  C       -0.01928242      0.96806074     -0.52179690
  H        0.00000000      0.00000000      0.00000000
  C        2.30730717     -0.95613737     -1.13378272
  H        3.10871308     -1.57322305     -1.54842050
  H        2.33879916     -1.07536681     -0.04675638
  H        1.36012862     -1.38186603     -1.48170365
  C        7.42313134      0.35531790     -3.46064199
  C        6.07790208      0.33052903     -5.57491577
  H        5.92457246      1.41813649     -5.60527301
  H        5.21373944     -0.11875905     -6.07543267
  C        7.48250660      0.97658491     -2.27357056
  H        8.44478193      1.32109177     -1.89485228
  C        6.03991924     -1.66622575     -4.00152428
  H        5.20291270     -2.06138637     -4.58538229
  H        6.95105870     -2.12595517     -4.39317554
  H        5.92626721     -2.00672634     -2.96775638
  C        8.69102546      0.10198575     -4.25435689
  H        9.54684946      0.57444868     -3.76236525
  H        8.90105321     -0.97952288     -4.28440940
  C        7.34879436      0.00082034     -6.37298829
  H        7.47624357     -1.08839676     -6.46128429
  H        7.26083234      0.38962794     -7.39383616
  C       -0.80762342      1.92528158      0.41384667
  H       -1.80537705      1.48862752      0.56735123
  H       -0.33118791      1.93227421      1.40050886
  C        8.58886657      0.59465051     -5.70548971
  H        8.50820372      1.68851409     -5.70525871
  C       -0.78391069      0.75707265     -1.84239582
  H       -0.70413878      1.62430358     -2.50716360
  H       -1.84908413      0.58768529     -1.64471489
  H       -0.41535970     -0.11206293     -2.39319695
  C       -0.98369552      3.37163707     -0.07969193
  H       -0.00826428      3.86951885     -0.14387743
  H       -1.38227804      3.36229737     -1.10190253
  C       -1.94133591      4.21526588      0.78364392
  H       -2.92449488      3.72259578      0.79258470
  H       -2.09466966      5.18714689      0.29121101
  C       -1.51656452      4.48069639      2.24379638
  H       -1.35993723      3.51235666      2.74012906
  C       -2.64123854      5.20751306      2.99869622
  H       -2.84487450      6.18750470      2.54799629
  H       -2.37345626      5.37432191      4.04832403
  H       -3.57371166      4.63176420      2.97764473
  C       -0.20516636      5.27681189      2.33676912
  H       -0.30496088      6.24999057      1.83842959
  H        0.06536672      5.46551807      3.38189251
  H        0.63306688      4.74880170      1.87101833



