%Mem=256MB 
%NProc=12 

#P HF/6-31G* SCF(Conver=6) NoSymm Test 
   Pop=mk IOp(6/33=2) GFInput GFPrint 

MEP - Input generated by R.E.D.-III.x MOLECULE 

0 1 
  O        0.00000000      0.00000000      0.00000000
  H        0.96763377     -0.00000000     -0.00000000
  O        1.61977937     -2.81398182      6.38645266
  H        2.55735719     -2.58525407      6.45569050
  C       -1.19699528      4.08844474      1.64805556
  C       -1.27855455      2.60091502      1.19048797
  H       -2.25299613      2.24024809      1.56213053
  C       -0.23644298      1.66052358      1.82191458
  H        0.77337543      1.95724193      1.50314574
  C       -0.33257704      1.74001408      3.37241747
  H       -1.31587643      1.31312596      3.63038978
  C       -2.39231671      4.66911862      0.81493832
  H       -3.28350208      4.21903165      1.27433983
  C       -1.37365963      4.10173402      3.17749965
  H       -2.38529539      3.74988746      3.42377761
  H       -1.28797675      5.11784905      3.58036891
  C        0.72168049      0.83774614      4.10425659
  C       -1.40148863      2.68705095     -0.34274360
  H       -1.86747570      1.79718122     -0.77204101
  H       -0.41149135      2.76387006     -0.80466675
  C       -0.33854183      3.20167298      3.87853686
  H        0.65550675      3.64338678      3.75109985
  H       -0.53915273      3.21527070      4.95551949
  C       -2.23408437      3.97892770     -0.57663157
  H       -1.73280696      4.63878259     -1.29228127
  H       -3.21898516      3.75871922     -1.00342897
  C       -0.44324423      0.20618339      1.35598242
  H       -1.52161253     -0.00075131      1.30322630
  C       -2.72747167      6.18455885      0.70506543
  H       -3.57224338      6.20924472      0.00000000
  C        0.15575348      4.73188790      1.26315267
  H        1.00537474      4.12651753      1.58978713
  H        0.25585552      4.86896003      0.18369755
  H        0.26447107      5.71421828      1.73185398
  C        0.76296671     -0.54912255      3.45291565
  C        0.28263975      0.66305905      5.59205623
  H       -0.78675970      0.41117050      5.60704348
  H        0.38378599      1.61882392      6.11692031
  C        0.21043626     -0.80318083      2.25765207
  H        0.23967029     -1.81619684      1.85639368
  C        2.14372656      1.45782851      4.05275531
  H        2.20404451      2.36773615      4.65770362
  H        2.89817725      0.76586348      4.43592353
  H        2.42950227      1.71002736      3.02696750
  C        1.45427388     -1.65693147      4.22527680
  H        1.32906539     -2.61382305      3.70915855
  H        2.53783157     -1.46031654      4.26850977
  C        1.04383808     -0.42090819      6.37092350
  H        2.10422246     -0.14692720      6.47539101
  H        0.64052606     -0.50440727      7.38650799
  C       -3.22699023      6.83433061      2.01914699
  H       -2.40982551      6.83273250      2.75180384
  H       -3.42725923      7.89442343      1.80572469
  C        0.94649434     -1.77554175      5.66992882
  H       -0.10188565     -2.09753212      5.65333655
  C       -1.64770056      7.09372748      0.08371295
  H       -0.84334444      7.32074398      0.78966017
  H       -2.09755811      8.04888047     -0.21039674
  H       -1.19410754      6.65947416     -0.81191533
  C       -4.48670089      6.24166714      2.67977080
  H       -4.31644231      5.19350453      2.95750040
  H       -4.64310639      6.77767190      3.62412270
  C       -5.75933682      6.33485465      1.82392132
  H       -5.60168178      5.79524939      0.88095169
  H       -5.93422766      7.38611750      1.54635414
  C       -7.03704600      5.77603162      2.48501085
  H       -6.82020622      4.74600050      2.80844840
  C       -8.18687406      5.71378009      1.46685689
  H       -8.44195266      6.71793670      1.10439689
  H       -9.09079223      5.28296338      1.91239228
  H       -7.91816576      5.10428476      0.59647592
  C       -7.46356724      6.57916330      3.72475400
  H       -7.67082821      7.62365814      3.45752734
  H       -8.37677037      6.16262684      4.16487886
  H       -6.69466804      6.57983174      4.50368382



