%Mem=256MB 
%NProc=12 

#P HF/6-31G* SCF(Conver=6) NoSymm Test 
   Pop=mk IOp(6/33=2) GFInput GFPrint 

MEP - Input generated by R.E.D.-III.x MOLECULE 

0 1 
  O        0.00000000      0.00000000      0.00000000
  H       -0.23075173      0.13657860      0.92973864
  O       -3.05592677      6.48031411      0.00000000
  H       -3.05930167      6.67861814      0.94700949
  C        4.27183529      1.55466555     -0.41155200
  C        2.84238731      1.06954609     -0.79211336
  H        2.73717461      1.31042976     -1.86441269
  C        1.68741884      1.81046748     -0.09464247
  H        1.73894000      1.63588525      0.99018365
  C        1.80036206      3.33440989     -0.37796108
  H        1.62451727      3.44887832     -1.46032329
  C        5.13524224      0.58401160     -1.29165517
  H        5.04417785      0.95235221     -2.32609305
  C        4.34375860      3.04991455     -0.78052282
  H        4.25483466      3.14704530     -1.87226833
  H        5.30744710      3.49099466     -0.50762042
  C        0.67968729      4.18031678      0.32119822
  C        2.92812358     -0.46163716     -0.69960490
  H        2.15743107     -0.95999398     -1.29205303
  H        2.77969798     -0.79502380      0.33297653
  C        3.22592627      3.86394642     -0.10139739
  H        3.41162348      3.88126758      0.97803456
  H        3.30278489      4.90410160     -0.43699097
  C        4.36516543     -0.77689615     -1.19375127
  H        4.87599575     -1.45586547     -0.50022815
  H        4.34710677     -1.28487754     -2.16282513
  C        0.31889113      1.28500413     -0.57039881
  H        0.37319353      1.07623564     -1.64832949
  C        6.65241300      0.43139630     -1.00680318
  H        6.76324394     -0.00000000     -0.00000000
  C        4.58481300      1.34294287      1.08756999
  H        3.86352634      1.84424141      1.73829832
  H        4.58186430      0.28324425      1.35920474
  H        5.57419125      1.74038562      1.33686048
  C       -0.68296857      3.50926665      0.11724521
  C        0.63185822      5.59171773     -0.34373678
  H        0.64447057      5.45798398     -1.43424579
  H        1.54121003      6.14601566     -0.08854535
  C       -0.80864551      2.24402813     -0.30923658
  H       -1.80295614      1.82678588     -0.46839657
  C        0.93906861      4.33327340      1.84394210
  H        1.81373805      4.96155978      2.03830031
  H        0.08968584      4.79778240      2.35153857
  H        1.10474934      3.36079442      2.31760624
  C       -1.91652733      4.34260153      0.41012288
  H       -2.82042641      3.79322830      0.12926784
  H       -1.98689202      4.53464221      1.49309765
  C       -0.59484373      6.44116518      0.02315812
  H       -0.58307793      6.69193210      1.09430433
  H       -0.56788243      7.39187395     -0.52132336
  C        7.28353016     -0.57278445     -2.00384277
  H        6.66775092     -1.47890457     -2.04256489
  H        7.24136712     -0.13337580     -3.01109917
  C       -1.89359354      5.70360078     -0.30131081
  H       -1.95361028      5.54037395     -1.38427824
  C        7.41819099      1.76591713     -1.03777471
  H        7.27685893      2.27690378     -1.99867439
  H        8.49219974      1.60891903     -0.90088434
  H        7.09413312      2.44698017     -0.24788593
  C        8.72407503     -1.00169080     -1.67636019
  H        9.41131606     -0.15349479     -1.77427710
  H        8.76789407     -1.30243789     -0.61984611
  C        9.23849056     -2.17867671     -2.52589416
  H        8.58298180     -3.04506448     -2.35591235
  H       10.23158303     -2.47252030     -2.15456645
  C        9.34500454     -1.94082077     -4.04741155
  H        8.34908866     -1.66540514     -4.42304581
  C        9.76245345     -3.23792320     -4.75873407
  H       10.75694293     -3.56325314     -4.42694974
  H        9.80352047     -3.10094925     -5.84538588
  H        9.05939390     -4.05240372     -4.54961249
  C       10.31302130     -0.79925131     -4.39672680
  H       11.32144078     -1.01475751     -4.01988784
  H       10.38609967     -0.66678494     -5.48221259
  H        9.99531745      0.15744944     -3.96955089



