%Mem=256MB 
%NProc=12 

#P HF/6-31G* SCF(Conver=6) NoSymm Test 
   Pop=mk IOp(6/33=2) GFInput GFPrint 

MEP - Input generated by R.E.D.-III.x MOLECULE 

0 1 
  O        0.00000000      0.00000000      0.00000000
  H       -0.23149839      0.13660065      0.92953928
  O       -3.06332559      6.47661224      0.00000000
  H       -3.06473973      6.67760749      0.94644603
  C        4.26831344      1.55998627     -0.41852571
  C        2.83951414      1.07176230     -0.79662359
  H        2.73191567      1.31001288     -1.86929485
  C        1.68499997      1.81226402     -0.09816275
  H        1.73834020      1.63845714      0.98665586
  C        1.79619364      3.33634349     -0.38261750
  H        1.61844013      3.44996408     -1.46476219
  C        5.13285945      0.59143869     -1.29870539
  H        5.04469690      0.96041312     -2.33321850
  C        4.33938348      3.05477220     -0.78834719
  H        4.24888458      3.15113114     -1.88003465
  H        5.30380385      3.49553178     -0.51686824
  C        0.67582666      4.18173960      0.31773882
  C        2.92947557     -0.45918168     -0.70002262
  H        2.15628438     -0.96165810     -1.28567964
  H        2.78873150     -0.78935303      0.33467369
  C        3.22160060      3.86828375     -0.10854908
  H        3.40868915      3.88731118      0.97061016
  H        3.29644485      4.90812122     -0.44556866
  C        4.36404082     -0.77152187     -1.20334597
  H        4.88009275     -1.45541637     -0.51899776
  H        4.33673149     -1.27383164     -2.17507964
  C        0.31613478      1.28535206     -0.57113759
  H        0.36853186      1.07659994     -1.64916703
  C        6.64738317      0.43452108     -1.00618253
  H        6.74070356     -0.00000000     -0.00000000
  C        4.58098703      1.34996023      1.08118320
  H        3.85420778      1.84497910      1.73059673
  H        4.58623082      0.29028922      1.35280740
  H        5.56621348      1.75568830      1.33300295
  C       -0.68652106      3.50881790      0.11769912
  C        0.62494378      5.59217311     -0.34911927
  H        0.63580895      5.45694032     -1.43947584
  H        1.53394721      6.14808121     -0.09631352
  C       -0.81187938      2.24318677     -0.30768797
  H       -1.80613420      1.82483411     -0.46423314
  C        0.93823612      4.33701896      1.83976165
  H        1.81195860      4.96739306      2.03158044
  H        0.08904888      4.80029696      2.34885659
  H        1.10707599      3.36541624      2.31415453
  C       -1.92031435      4.34119008      0.41220867
  H       -2.82429733      3.79034206      0.13453971
  H       -1.98835373      4.53537125      1.49494091
  C       -0.60215997      6.44060325      0.01870352
  H       -0.58871947      6.69322856      1.08940016
  H       -0.57746808      7.39041429     -0.52746332
  C        7.30430305     -0.56515158     -2.00871568
  H        6.52689760     -1.08814525     -2.57501679
  H        7.87560150      0.00065882     -2.75701183
  C       -1.90055013      5.70081163     -0.30194407
  H       -1.96234970      5.53530805     -1.38445705
  C        7.41645274      1.76847650     -1.01380274
  H        7.25982942      2.30423452     -1.95838082
  H        8.49225360      1.59712081     -0.91015788
  H        7.11438414      2.43183045     -0.19945241
  C        8.20057406     -1.64635659     -1.37023084
  H        7.59754008     -2.19814833     -0.63593975
  H        8.46611034     -2.37967359     -2.14257576
  C        9.48287005     -1.16293635     -0.66715499
  H        9.92935513     -2.01825981     -0.13856007
  H        9.21560516     -0.43981639      0.11538205
  C       10.57218402     -0.53982576     -1.56660651
  H       10.12513887      0.29287555     -2.12814402
  C       11.13468258     -1.54211855     -2.58767868
  H       11.58098815     -2.40658863     -2.07894624
  H       11.91598639     -1.07835129     -3.20054081
  H       10.36358203     -1.91733368     -3.26798521
  C       11.70512436      0.03998538     -0.70433468
  H       12.19098938     -0.74909006     -0.11598859
  H       12.47520402      0.51383349     -1.32374412
  H       11.32886552      0.79305816     -0.00225634



