%Mem=256MB 
%NProc=12 

#P HF/6-31G* SCF(Conver=6) NoSymm Test 
   Pop=mk IOp(6/33=2) GFInput GFPrint 

MEP - Input generated by R.E.D.-III.x MOLECULE 

0 1 
  O        6.10714998      3.74588782     -0.00000000
  H        5.69579403      3.99812689     -0.83873527
  O        0.00000000      0.00000000      0.00000000
  H       -0.26579804      0.08170315     -0.92673536
  C        8.77479930      0.17576331     -1.00106111
  C        7.94973968      1.21883328     -0.18862873
  H        7.90318892      0.81152930      0.83590615
  C        6.48177112      1.37855317     -0.62289824
  H        6.43838849      1.77899851     -1.64620173
  C        5.77058852     -0.00416676     -0.57902770
  H        5.73831827     -0.28687038      0.48619443
  C       10.14760399      0.31108567     -0.25463299
  H        9.95370509     -0.10878519      0.74233795
  C        8.05995326     -1.17998930     -0.85437742
  H        8.10128573     -1.49412823      0.19798378
  H        8.56357706     -1.96166505     -1.43530859
  C        4.27311544      0.05584748     -1.04282456
  C        8.86738636      2.45464604     -0.12520465
  H        8.63252647      3.10248476      0.72241211
  H        8.74482383      3.07162887     -1.02168633
  C        6.58835398     -1.09970961     -1.30268829
  H        6.55874926     -0.93219095     -2.38460554
  H        6.12051408     -2.07617265     -1.13545498
  C       10.29808862      1.85135521     -0.04777099
  H       10.94671740      2.29291956     -0.81140941
  H       10.77727122      2.05823291      0.91569308
  C        5.73884845      2.38106034      0.28154092
  H        6.07198106      2.23872876      1.31944638
  C       11.46715806     -0.36958559     -0.71984658
  H       12.21320985      0.00000000      0.00000000
  C        8.87637744      0.56480165     -2.49452339
  H        7.89713591      0.78227726     -2.92904613
  H        9.49955431      1.44887236     -2.64977197
  H        9.31082397     -0.25166901     -3.07856558
  C        3.57152828      1.25047970     -0.38709318
  C        3.55270748     -1.24759242     -0.57498173
  H        3.81339107     -1.42495166      0.47757487
  H        3.94137759     -2.10186679     -1.13920703
  C        4.24373645      2.24043998      0.21838625
  H        3.69270695      3.04929395      0.69816338
  C        4.15363486      0.18935279     -2.58466446
  H        4.48390486     -0.72303983     -3.09062301
  H        3.12131263      0.37308503     -2.89350521
  H        4.75487227      1.02389130     -2.95825742
  C        2.05530596      1.27451403     -0.43378574
  H        1.67145933      2.11557187      0.15185937
  H        1.71732271      1.43099377     -1.47104424
  C        2.02098566     -1.22169243     -0.69414369
  H        1.71799209     -1.15851938     -1.74988900
  H        1.59968706     -2.15464535     -0.30279871
  C       11.47241710     -1.91444811     -0.61073826
  H       10.74073098     -2.32521455     -1.31816539
  H       12.45236181     -2.26528198     -0.96581220
  C        1.42811243     -0.03548599      0.06567012
  H        1.64458185     -0.14867043      1.13496146
  C       12.00474618      0.02938523     -2.10923258
  H       11.46137449     -0.46558561     -2.91956449
  H       13.05545686     -0.27016378     -2.19564446
  H       11.95942282      1.10789660     -2.28595721
  C       11.22462533     -2.53727295      0.77678948
  H       10.23262550     -2.25448475      1.15193444
  H       11.19330634     -3.62597050      0.64517994
  C       12.28202539     -2.18174741      1.83332682
  H       12.30943030     -1.09227024      1.96564890
  H       13.27820002     -2.46728695      1.46065106
  C       12.06664314     -2.82500110      3.21958020
  H       11.04433533     -2.57725020      3.54531275
  C       13.04186718     -2.22865497      4.24716314
  H       14.08171995     -2.44138257      3.96747397
  H       12.87486900     -2.64876103      5.24555955
  H       12.93246865     -1.14042079      4.31808622
  C       12.19304612     -4.35698895      3.18892995
  H       13.19257432     -4.65671274      2.84768854
  H       12.04337474     -4.78137684      4.18825265
  H       11.45935619     -4.82080692      2.52221406



