%Mem=256MB 
%NProc=12 

#P HF/6-31G* SCF(Conver=6) NoSymm Test 
   Pop=mk IOp(6/33=2) GFInput GFPrint 

MEP - Input generated by R.E.D.-III.x MOLECULE 

0 1 
  O        0.00000000      0.00000000      0.00000000
  H        0.96762651      0.00000000      0.00000000
  O        1.64789986     -2.73085015      6.41495210
  H        2.58619220     -2.50209465      6.47359175
  C       -1.19537145      4.10827056      1.59154131
  C       -1.28766938      2.61303774      1.16770328
  H       -2.25968343      2.26647344      1.56006160
  C       -0.23841946      1.68240414      1.80225814
  H        0.76728961      1.98189300      1.47241420
  C       -0.32393980      1.77980841      3.35095379
  H       -1.30516833      1.35598689      3.62129774
  C       -2.38139290      4.70473763      0.75529801
  H       -3.30320565      4.38290365      1.26602069
  C       -1.35978137      4.14356822      3.12420565
  H       -2.37413097      3.80217791      3.37679746
  H       -1.26705156      5.15937540      3.52073573
  C        0.73578242      0.88861219      4.08777812
  C       -1.43158436      2.66378080     -0.36113789
  H       -1.88925072      1.75910016     -0.76785682
  H       -0.44960779      2.74776171     -0.83877236
  C       -0.32634725      3.24814251      3.83354526
  H        0.66867823      3.68489513      3.69542411
  H       -0.52249547      3.28019688      4.91104712
  C       -2.28869517      3.93439757     -0.60550474
  H       -1.83214737      4.57048626     -1.37343852
  H       -3.28544841      3.67495845     -0.97510094
  C       -0.44269787      0.22202568      1.35386863
  H       -1.52074932      0.01267396      1.30452554
  C       -2.49306658      6.24048278      0.56353143
  H       -1.60771135      6.56713705     -0.00000000
  C        0.14191973      4.75819283      1.16768282
  H        1.00900070      4.22665802      1.56866727
  H        0.25553630      4.78567462      0.07996987
  H        0.20212786      5.79056142      1.52780040
  C        0.77210449     -0.50702254      3.45547673
  C        0.30754897      0.73556931      5.58100179
  H       -0.76183574      0.48457935      5.60741695
  H        0.41285925      1.69885116      6.09111416
  C        0.21339566     -0.77610060      2.26637916
  H        0.23972828     -1.79432517      1.87829689
  C        2.15767730      1.50727465      4.01706701
  H        2.22345791      2.42461354      4.61014155
  H        2.91481082      0.81964793      4.40283691
  H        2.43537385      1.74645294      2.98593767
  C        1.46692770     -1.60495632      4.23872887
  H        1.33644777     -2.56893340      3.73729415
  H        2.55113035     -1.40954183      4.27105080
  C        1.07399702     -0.33764018      6.36950049
  H        2.13537255     -0.06304836      6.46153870
  H        0.67870613     -0.40624409      7.38934575
  C       -3.74627309      6.56851051     -0.28868373
  H       -3.71922532      5.97477280     -1.20969026
  H       -4.63356714      6.22804563      0.26599627
  C        0.97003882     -1.70210555      5.68876293
  H       -0.07872465     -2.02323169      5.68498679
  C       -2.52768250      7.02208229      1.88791884
  H       -3.35423719      6.68161009      2.52457000
  H       -2.66650067      8.09321426      1.71270486
  H       -1.60166308      6.91173194      2.45623398
  C       -3.95774091      8.04237772     -0.68950312
  H       -4.90837701      8.09679437     -1.23495283
  H       -4.09284807      8.66189884      0.20474003
  C       -2.83456119      8.62173935     -1.56528818
  H       -2.66565162      7.94223260     -2.41371821
  H       -1.89633954      8.63105513     -0.99449142
  C       -3.06586051     10.04636036     -2.12352216
  H       -2.16243351     10.29365685     -2.70057082
  C       -3.19548913     11.10277573     -1.01354370
  H       -4.11070440     10.96207104     -0.42699767
  H       -3.23190783     12.11242232     -1.43842323
  H       -2.34522874     11.06224312     -0.32243777
  C       -4.25411932     10.11962001     -3.09692298
  H       -5.20884169      9.94879503     -2.58641926
  H       -4.30967176     11.10727449     -3.56887909
  H       -4.16282693      9.37313028     -3.89470175



