%Mem=256MB 
%NProc=12 

#P HF/6-31G* SCF(Conver=6) NoSymm Test 
   Pop=mk IOp(6/33=2) GFInput GFPrint 

MEP - Input generated by R.E.D.-III.x MOLECULE 

0 1 
  O        6.12584333      3.71544254      0.00000000
  H        5.85739293      3.72906695     -0.92953928
  O        0.00000000      0.00000000      0.00000000
  H       -0.11196752     -0.16692622     -0.94644603
  C        8.82736666      0.06115348      0.41852571
  C        7.90431686      1.25606318      0.79662359
  H        7.68321669      1.11658026      1.86929485
  C        6.53285657      1.27456852      0.09816275
  H        6.67316390      1.39018801     -0.98665586
  C        5.78556887     -0.05837684      0.38261750
  H        5.57462842     -0.05520233      1.46476219
  C       10.08258210      0.39275324      1.29870539
  H        9.80564446      0.13348445      2.33321850
  C        8.06274718     -1.22523409      0.78834719
  H        7.93412447     -1.25575117      1.88003465
  H        8.62449229     -2.12457724      0.51686824
  C        4.38478292     -0.14621466     -0.31773882
  C        8.82322733      2.48386043      0.70002262
  H        8.45505736      3.32929407      1.28567964
  H        8.88778261      2.83692504     -0.33467369
  C        6.68169197     -1.28789253      0.10854908
  H        6.82730641     -1.40689086     -0.97061016
  H        6.17098696     -2.19676218      0.44556866
  C       10.19235511      1.95374442      1.20334597
  H       10.99989594      2.23992459      0.51899776
  H       10.44643951      2.38791261      2.17507964
  C        5.68113902      2.46872316      0.57113759
  H        5.83992105      2.61402001      1.64916703
  C       11.43275718     -0.31111640      1.00618253
  H       11.75012739     -0.00000000      0.00000000
  C        9.20401944      0.06405012     -1.08118320
  H        8.32476002      0.05161519     -1.73059673
  H        9.79248016      0.94532427     -1.35280740
  H        9.80243384     -0.81753178     -1.33300295
  C        3.61898324      1.16617467     -0.11769912
  C        3.56490345     -1.29500073      0.34911927
  H        3.64850874     -1.18815451      1.43947584
  H        4.01694067     -2.25987554      0.09631352
  C        4.21199685      2.29128432      0.30768797
  H        3.61300800      3.18837627      0.46423314
  C        4.51814196     -0.42041491     -1.83976165
  H        4.89969630     -1.42797571     -2.03158044
  H        3.55424361     -0.33889532     -2.34885659
  H        5.19456059      0.29720379     -2.31415453
  C        2.13073578      1.15172372     -0.41220867
  H        1.68009841      2.10960928     -0.13453971
  H        1.96693362      1.02720651     -1.49494091
  C        2.07338652     -1.32653729     -0.01870352
  H        1.94535513     -1.54473023     -1.08940016
  H        1.57045769     -2.13264727      0.52746332
  C       12.53189027      0.16089589      2.00871568
  H       12.17151303      1.02577153      2.57501679
  H       12.69669633     -0.62609985      2.75701183
  C        1.39780988      0.00639364      0.30194407
  H        1.43747054      0.17854953      1.38445705
  C       11.33918104     -1.84804470      1.01380274
  H       10.91319106     -2.20873855      1.95838082
  H       12.33125432     -2.29804567      0.91015788
  H       10.72150470     -2.23503286      0.19945241
  C       13.87567253      0.56900769      1.37023084
  H       13.67666008      1.36179906      0.63593975
  H       14.50143045      1.03450781      2.14257576
  C       14.67913121     -0.54114197      0.66715499
  H       15.52311790     -0.07358063      0.13856007
  H       14.05755153     -0.99718113     -0.11538205
  C       15.24457361     -1.66147525      1.56660651
  H       14.41258883     -2.10985249      2.12814402
  C       16.26636798     -1.13523221      2.58767868
  H       17.11524646     -0.65994020      2.07894624
  H       16.66264323     -1.95283948      3.20054081
  H       15.82979660     -0.39713474      3.26798521
  C       15.87028326     -2.76972711      0.70433468
  H       16.71061207     -2.37914757      0.11598859
  H       16.25163683     -3.58955890      1.32374412
  H       15.14125177     -3.19068126      0.00225634



