%Mem=256MB 
%NProc=12 

#P HF/6-31G* SCF(Conver=6) NoSymm Test 
   Pop=mk IOp(6/33=2) GFInput GFPrint 

MEP - Input generated by R.E.D.-III.x MOLECULE 

0 1 
  O        0.00000000      0.00000000      0.00000000
  H        0.96763387     -0.00000000     -0.00000000
  O        1.59721357     -1.00119403      6.91425139
  H        2.53390500     -0.75901919      6.92517946
  C       -1.16409118      4.37365482      0.49140669
  C       -1.27199972      2.82644952      0.44754996
  H       -2.24814783      2.59446065      0.90720867
  C       -0.23591420      2.08657961      1.31040652
  H        0.77597538      2.28876242      0.92975208
  C       -0.34483243      2.57819982      2.78399656
  H       -1.32852578      2.22784025      3.13772106
  C       -2.33733686      4.74644491     -0.46801188
  H       -3.23991127      4.47280130      0.09781025
  C       -1.36766729      4.81132924      1.95138653
  H       -2.39130957      4.55225604      2.25834036
  H       -1.27482590      5.90043792      2.05858818
  C        0.70670389      1.90678025      3.73591716
  C       -1.41381483      2.50342821     -1.05343915
  H       -1.91226019      1.54634292     -1.22424960
  H       -0.42994078      2.42047010     -1.52692677
  C       -0.36156196      4.12370461      2.89467129
  H        0.63843620      4.52113311      2.69260855
  H       -0.59669935      4.41144742      3.92522714
  C       -2.21327678      3.71230924     -1.62992451
  H       -1.69060588      4.13824559     -2.49101107
  H       -3.20189258      3.40821580     -1.98972241
  C       -0.44319328      0.56116392      1.25133764
  H       -1.52184804      0.34884835      1.25517118
  C       -2.53591390      6.24052259     -0.85708285
  H       -2.19009972      6.83893039      0.00000000
  C        0.19500854      4.88674951     -0.03384180
  H        1.03343408      4.51566294      0.56132920
  H        0.37874602      4.58457100     -1.06846434
  H        0.23236654      5.98076499      0.00553519
  C        0.75378167      0.39635552      3.47839706
  C        0.25999818      2.13437787      5.21420731
  H       -0.80936282      1.89364701      5.29061729
  H        0.35801891      3.19572407      5.46535250
  C        0.20877066     -0.16950199      2.39152104
  H        0.24181459     -1.25280741      2.27566957
  C        2.12865631      2.49379533      3.52752544
  H        2.18720171      3.53036783      3.87337717
  H        2.88252972      1.92737833      4.08041971
  H        2.41699721      2.46875193      2.47219571
  C        1.44242570     -0.46287912      4.52202684
  H        1.32189405     -1.52319700      4.27933605
  H        2.52535145     -0.25848687      4.51700626
  C        1.01781277      1.29931024      6.25801957
  H        2.07723328      1.59425977      6.29133585
  H        0.60860811      1.48863900      7.25689184
  C       -1.74528895      6.72058746     -2.09799919
  H       -0.75586181      6.25297136     -2.12522076
  H       -2.26292231      6.38234597     -3.00698683
  C        0.92645523     -0.19354226      5.94322963
  H       -0.12132258     -0.51140572      6.00775524
  C       -4.03948850      6.53633867     -1.03477219
  H       -4.46615441      5.91499014     -1.83204087
  H       -4.22289642      7.58307899     -1.29785320
  H       -4.59607790      6.32560683     -0.11478672
  C       -1.55234811      8.24491591     -2.16892994
  H       -2.52773603      8.74521627     -2.14191208
  H       -1.01328222      8.57301969     -1.26975906
  C       -0.78410051      8.68023367     -3.42709393
  H       -1.33288011      8.32744763     -4.31228349
  H        0.18448891      8.15967733     -3.44527867
  C       -0.52320003     10.19584053     -3.59071624
  H        0.02983489     10.30583089     -4.53535126
  C        0.36949769     10.76736044     -2.47665115
  H       -0.13699769     10.75201403     -1.50468316
  H        0.63828396     11.80866846     -2.68805938
  H        1.30000905     10.19581828     -2.37819073
  C       -1.82060299     11.00938950     -3.73072741
  H       -2.40419417     11.00324446     -2.80289040
  H       -1.60042162     12.05591548     -3.97061650
  H       -2.45749798     10.61077257     -4.52918805



