%Mem=256MB 
%NProc=12 

#P HF/6-31G* SCF(Conver=6) NoSymm Test 
   Pop=mk IOp(6/33=2) GFInput GFPrint 

MEP - Input generated by R.E.D.-III.x MOLECULE 

0 1 
  O        0.00000000      0.00000000      0.00000000
  H       -0.23009152      0.13786481      0.92970546
  O       -3.04437377      6.48509948      0.00000000
  H       -3.04529589      6.68476922      0.94672665
  C        4.27467865      1.54730966     -0.41564278
  C        2.84428154      1.06275193     -0.79385794
  H        2.73879268      1.30028810     -1.86684995
  C        1.69084088      1.80747671     -0.09770866
  H        1.74259226      1.63493750      0.98741499
  C        1.80578712      3.33063334     -0.38413626
  H        1.62744814      3.44346734     -1.46625624
  C        5.13606063      0.57193545     -1.29222075
  H        5.04265540      0.93457080     -2.32852407
  C        4.34805883      3.04120213     -0.79012529
  H        4.25766250      3.13463221     -1.88207511
  H        5.31267911      3.48208641     -0.52025882
  C        0.68816244      4.17938901      0.31634991
  C        2.92779061     -0.46828691     -0.69593967
  H        2.15788751     -0.96736889     -1.28880747
  H        2.77585885     -0.79791632      0.33736893
  C        3.23257700      3.85887739     -0.11186027
  H        3.42019541      3.87925277      0.96716253
  H        3.31035396      4.89789563     -0.45083478
  C        4.36577391     -0.78781011     -1.18474434
  H        4.87505516     -1.46020285     -0.48382521
  H        4.35079392     -1.30447248     -2.14924557
  C        0.32092620      1.28389412     -0.57171614
  H        0.37392880      1.07418469     -1.64952433
  C        6.65431036      0.41989912     -1.01015461
  H        6.76106684     -0.00000000     -0.00000000
  C        4.58796506      1.34123891      1.08428693
  H        3.86549360      1.84288540      1.73354264
  H        4.58764175      0.28243777      1.35946594
  H        5.57640504      1.74204861      1.33214294
  C       -0.67607787      3.51042224      0.11571976
  C        0.64133880      5.59010924     -0.35013260
  H        0.65183663      5.45512107     -1.44052032
  H        1.55194884      6.14330756     -0.09719434
  C       -0.80458273      2.24519799     -0.30996286
  H       -1.79986287      1.82954951     -0.46724070
  C        0.95096781      4.33360951      1.83841356
  H        1.82635244      4.96163806      2.03039544
  H        0.10302603      4.79909650      2.34754682
  H        1.11725232      3.36154160      2.31273706
  C       -1.90774100      4.34590267      0.41016867
  H       -2.81304126      3.79767778      0.13161075
  H       -1.97574376      4.53916533      1.49310546
  C       -0.58334086      6.44184678      0.01818019
  H       -0.56900930      6.69368915      1.08904887
  H       -0.55598092      7.39194778     -0.52735189
  C        7.27092864     -0.59020972     -2.01208348
  H        6.68778961     -1.51810993     -1.99065563
  H        7.15121871     -0.17982423     -3.02605106
  C       -1.88394867      5.70606818     -0.30279626
  H       -1.94647880      5.54170699     -1.38543953
  C        7.42172231      1.75229132     -1.05383543
  H        7.28756209      2.25241503     -2.02146965
  H        8.49514018      1.59655533     -0.90956316
  H        7.09433939      2.44254688     -0.27342595
  C        8.75280530     -0.96541429     -1.80979050
  H        9.03171247     -1.63851004     -2.63036253
  H        9.38668358     -0.07848466     -1.92505242
  C        9.04846847     -1.65149045     -0.46588765
  H        8.34828728     -2.49037875     -0.33897778
  H        8.83441770     -0.95286761      0.35402940
  C       10.48722720     -2.18695016     -0.27114224
  H       10.51260486     -2.62041350      0.73969235
  C       11.54416542     -1.07059927     -0.31002022
  H       11.62512528     -0.62570293     -1.30850196
  H       12.53351199     -1.46085528     -0.04520182
  H       11.30261234     -0.26723981      0.39601003
  C       10.84094111     -3.31656660     -1.25281851
  H       10.90203899     -2.95356950     -2.28518966
  H       11.81347617     -3.75688318     -1.00465152
  H       10.09415480     -4.11874657     -1.22366935



