%Mem=256MB 
%NProc=48 

#P HF/6-31G* SCF(Conver=6) NoSymm Test 
   Pop=chelpg IOp(6/33=2) GFInput GFPrint 

MEP - Input generated by R.E.D.-III.x MOLECULE 

0 1 
  O        6.83960515      0.78746727      0.00000000
  H        7.40003366      0.00000000      0.00000000
  O       10.39215515     -2.04369860      4.94535130
  H       10.07310052     -1.93553740      5.85236641
  C        2.77289022     -0.57763676      0.72423412
  C        4.08347076      0.22645520      0.49850518
  H        4.58906732     -0.26881721     -0.34263895
  C        5.07814875      0.18791209      1.66497090
  H        4.62547512      0.67559964      2.54052676
  C        5.43492035     -1.27663828      2.02517107
  H        6.01695071     -1.66331014      1.17202707
  C        2.03831826     -0.26853446     -0.62656833
  H        2.56980178     -0.85342118     -1.39141829
  C        3.19608176     -2.04237968      0.95648044
  H        3.66974772     -2.42105440      0.03932644
  H        2.33486384     -2.68943512      1.15210670
  C        6.38438370     -1.37135802      3.27074946
  C        3.61590692      1.59020596     -0.03030786
  H        4.39101485      2.08307858     -0.62368730
  H        3.36327536      2.26707663      0.79602756
  C        4.17936578     -2.17365367      2.13784595
  H        3.64007595     -1.94255220      3.06222414
  H        4.48369725     -3.22334603      2.22212557
  C        2.35455436      1.24445740     -0.87004414
  H        1.50289985      1.86434047     -0.56546319
  H        2.51432453      1.44407562     -1.93429551
  C        6.35549953      0.99400838      1.34823394
  H        6.10673059      2.06129203      1.36846122
  C        0.52894870     -0.58795478     -0.76431995
  H        0.00000000      0.00000000      0.00000000
  C        1.94505087     -0.05186526      1.91892452
  H        2.51230350     -0.05551111      2.85327745
  H        1.59916790      0.97353232      1.75688700
  H        1.05748984     -0.67369107      2.07878104
  C        7.49836392     -0.32046428      3.17567557
  C        7.04436235     -2.78494067      3.28907245
  H        7.42737824     -2.99877222      2.28148412
  H        6.27789501     -3.53976337      3.49489949
  C        7.46000954      0.72008353      2.32703777
  H        8.29897929      1.41483386      2.29938269
  C        5.61119903     -1.14265108      4.59819876
  H        4.92658307     -1.97002901      4.80747764
  H        6.29017806     -1.06375854      5.45084314
  H        5.02937219     -0.21667148      4.56348008
  C        8.68186395     -0.49054924      4.11050435
  H        9.45351408      0.25142237      3.88302712
  H        8.36508331     -0.30741061      5.14971600
  C        8.19933378     -2.94966378      4.28862572
  H        7.83117098     -2.85658417      5.32102359
  H        8.63214852     -3.95251668      4.19952055
  C       -0.05395941     -0.11489548     -2.12419591
  H       -1.13910813     -0.27771738     -2.08521247
  H        0.08066550      0.97010187     -2.21985604
  C        9.28621833     -1.90175176      4.05033803
  H        9.72437026     -2.05866401      3.05693978
  C        0.18275343     -2.06894258     -0.52063837
  H        0.79593903     -2.73852773     -1.13419356
  H       -0.86809556     -2.26218244     -0.76720741
  H        0.32770259     -2.35627786      0.52384262
  C        0.51395726     -0.79109220     -3.38339743
  H        1.60421077     -0.66846741     -3.40351607
  H        0.33609742     -1.87268058     -3.34285669
  C       -0.04061982     -0.22249778     -4.70368128
  H        0.50485822     -0.68374510     -5.54045895
  H        0.19375346      0.85110499     -4.74563487
  C       -1.55206121     -0.40067370     -4.96211509
  H       -2.10243987      0.07198595     -4.13616389
  C       -1.96696828     -1.87943131     -5.02024929
  H       -1.42668445     -2.40392027     -5.81924663
  H       -3.03912811     -1.97724522     -5.22549655
  H       -1.76270753     -2.40357054     -4.08103222
  C       -1.95654477      0.32313404     -6.25656667
  H       -1.44010712     -0.10847607     -7.12370531
  H       -3.03440482      0.24211243     -6.43813106
  H       -1.70236359      1.38852425     -6.21478978



