%Mem=256MB 
%NProc=48 

#P HF/6-31G* SCF(Conver=6) NoSymm Test 
   Pop=chelpg IOp(6/33=2) GFInput GFPrint 

MEP - Input generated by R.E.D.-III.x MOLECULE 

0 1 
  O        0.00000000      0.00000000      0.00000000
  H       -0.47099921      0.45466982     -0.71110659
  O       -3.27013606      5.86570365      0.00000000
  H       -2.97027810      6.55170763      0.61289934
  C        4.18377600      1.13776407     -0.37595581
  C        2.79709964      0.58149555      0.05259464
  H        2.35177675      0.16681982     -0.86301395
  C        1.80379745      1.63262738      0.56297963
  H        2.19751454      2.08068189      1.48684507
  C        1.59912504      2.74585136     -0.49533047
  H        1.06669363      2.26923383     -1.33528359
  C        4.89502769     -0.19985592     -0.78507941
  H        4.45259723     -0.49604786     -1.74949319
  C        3.91256830      2.14781920     -1.51018315
  H        3.48569713      1.60648563     -2.36674128
  H        4.83355745      2.61867010     -1.86801783
  C        0.65678835      3.89123047      0.01615111
  C        3.12410790     -0.62055566      0.94856364
  H        2.30100288     -1.33967492      0.98250501
  H        3.31609355     -0.30054795      1.98077228
  C        2.94128587      3.26093519     -1.06658014
  H        3.44750066      3.88281892     -0.32101316
  H        2.74908275      3.91639831     -1.92392947
  C        4.40469860     -1.21687897      0.30264026
  H        5.18639019     -1.37545484      1.05543868
  H        4.20133885     -2.19562159     -0.14151782
  C        0.45157960      0.99598210      0.94795147
  H        0.58777352      0.42342968      1.87260999
  C        6.43451742     -0.22652403     -0.97359559
  H        6.89579343     -0.00000000     -0.00000000
  C        4.94237227      1.81085940      0.79094334
  H        4.37160336      2.62457816      1.24590577
  H        5.17885550      1.09923777      1.58778757
  H        5.88975145      2.23677439      0.44423356
  C       -0.56004811      3.29980517      0.73988958
  C        0.14769512      4.70534130     -1.21350615
  H       -0.20439642      3.99486304     -1.97437642
  H        0.98726991      5.24737186     -1.66174108
  C       -0.62481168      2.02241499      1.15028161
  H       -1.53163064      1.66606484      1.63814189
  C        1.39349870      4.84177518      0.99897623
  H        2.15884874      5.43064285      0.48462694
  H        0.70469179      5.54918850      1.46734369
  H        1.87636672      4.28125070      1.80509009
  C       -1.72592466      4.23665298      0.99799860
  H       -2.56918983      3.68317292      1.42260633
  H       -1.43763058      4.99342069      1.74498840
  C       -0.99037442      5.69257421     -0.91277956
  H       -0.64077824      6.48976003     -0.24020980
  H       -1.31554859      6.18286272     -1.83736619
  C        6.89887942     -1.64808547     -1.37790011
  H        6.42738482     -2.38446015     -0.71737954
  H        6.52547308     -1.86629989     -2.39041662
  C       -2.17911644      4.98102535     -0.26722492
  H       -2.59191986      4.25469225     -0.97818878
  C        6.94070149      0.81085127     -1.99149459
  H        6.44486037      0.68164253     -2.96191800
  H        8.01802168      0.71287674     -2.15495003
  H        6.76214570      1.83616870     -1.66007838
  C        8.41740579     -1.88707442     -1.33409166
  H        8.92474319     -1.22888342     -2.04840536
  H        8.78967146     -1.61016508     -0.33825547
  C        8.78186160     -3.34926449     -1.63955282
  H        8.36740028     -3.61573015     -2.62271924
  H        8.27315111     -3.99780199     -0.91171661
  C       10.28715576     -3.70404812     -1.63612539
  H       10.34341150     -4.77893272     -1.86364332
  C       10.94081104     -3.49953401     -0.25935304
  H       10.98140819     -2.43913076      0.01522950
  H       11.96969543     -3.87725934     -0.25608673
  H       10.38872237     -4.02770351      0.52702414
  C       11.07321162     -2.96969752     -2.73508649
  H       11.12014615     -1.89078676     -2.54733085
  H       12.10470237     -3.33651802     -2.78752455
  H       10.61554987     -3.11829682     -3.72025795



