%Mem=256MB 
%NProc=48 

#P HF/6-31G* SCF(Conver=6) NoSymm Test 
   Pop=chelpg IOp(6/33=2) GFInput GFPrint 

MEP - Input generated by R.E.D.-III.x MOLECULE 

0 1 
  O        0.00000000      0.00000000      0.00000000
  H       -0.47340085      0.45474486     -0.70943329
  O       -3.26859184      5.86752766      0.00000000
  H       -2.96886689      6.55307424      0.61348036
  C        4.18370328      1.13636400     -0.37194715
  C        2.79649287      0.58083386      0.05609040
  H        2.35150013      0.16656361     -0.85985283
  C        1.80307433      1.63210930      0.56596973
  H        2.19564211      2.07993252      1.49051969
  C        1.59972151      2.74572197     -0.49212415
  H        1.06799667      2.26960282     -1.33279424
  C        4.89371083     -0.20173959     -0.78137480
  H        4.45005168     -0.49766942     -1.74531142
  C        3.91323346      2.14719277     -1.50566567
  H        3.48637772      1.60669392     -2.36276209
  H        4.83448632      2.61795403     -1.86286214
  C        0.65704030      3.89100646      0.01897107
  C        3.12236490     -0.62172457      0.95182403
  H        2.29909418     -1.34070851      0.98466861
  H        3.31352239     -0.30228341      1.98436023
  C        2.94251090      3.26067805     -1.06173582
  H        3.44842089      3.88153259     -0.31511559
  H        2.75141284      3.91703071     -1.91864143
  C        4.40348638     -1.21806207      0.30695237
  H        5.18478976     -1.37514573      1.06046894
  H        4.20152979     -2.19752389     -0.13635405
  C        0.45036880      0.99545287      0.94912169
  H        0.58546051      0.42253504      1.87372272
  C        6.43276700     -0.23074794     -0.97154666
  H        6.89640982     -0.00000000     -0.00000000
  C        4.94285085      1.80860611      0.79492789
  H        4.37159315      2.62120646      1.25115690
  H        5.18060987      1.09630559      1.59077097
  H        5.88959147      2.23571001      0.44770887
  C       -0.56089642      3.29939334      0.74085422
  C        0.14975074      4.70610157     -1.21077954
  H       -0.20197875      3.99633151     -1.97248399
  H        0.99014654      5.24783968     -1.65782473
  C       -0.62618468      2.02184343      1.15073139
  H       -1.53343738      1.66539376      1.63772527
  C        1.39240020      4.84081064      1.00351829
  H        2.15805897      5.43051502      0.49055864
  H        0.70262803      5.54733073      1.47178998
  H        1.87472343      4.27980354      1.80964417
  C       -1.72647260      4.23674136      0.99830979
  H       -2.57058456      3.68358457      1.42164269
  H       -1.43833738      4.99280502      1.74610792
  C       -0.98799748      5.69380257     -0.91062129
  H       -0.63866355      6.49029097     -0.23709083
  H       -1.31192793      6.18493160     -1.83519664
  C        6.89453431     -1.65553041     -1.36787915
  H        6.45497119     -2.38238616     -0.67482949
  H        6.47990590     -1.89142605     -2.35877583
  C       -2.17785167      4.98242212     -0.26683640
  H       -2.59034933      4.25693166     -0.97883875
  C        6.93982809      0.80060947     -1.99490864
  H        6.45122823      0.66077632     -2.96762462
  H        8.01887458      0.70752536     -2.14944935
  H        6.75278319      1.82739766     -1.67312762
  C        8.41733356     -1.87397748     -1.36920444
  H        8.89014623     -1.29001142     -2.16719866
  H        8.82849192     -1.48284187     -0.42758690
  C        8.84026657     -3.34952709     -1.49407068
  H        8.42487919     -3.90520863     -0.64089839
  H        9.93405865     -3.41181173     -1.39291430
  C        8.43461415     -4.07886457     -2.79263420
  H        7.34014580     -4.03181210     -2.88565087
  C        8.82612938     -5.56308478     -2.71178695
  H        9.91424693     -5.67622654     -2.62158090
  H        8.50900926     -6.10817140     -3.60821335
  H        8.36814788     -6.05036936     -1.84331745
  C        9.04284194     -3.42871794     -4.04544039
  H       10.13936959     -3.42885116     -3.99078455
  H        8.75591797     -3.97781220     -4.94951193
  H        8.71589431     -2.39164909     -4.17314170



