%Mem=256MB 
%NProc=48 

#P HF/6-31G* SCF(Conver=6) NoSymm Test 
   Pop=chelpg IOp(6/33=2) GFInput GFPrint 

MEP - Input generated by R.E.D.-III.x MOLECULE 

0 1 
  O        5.74648853      3.47884314      0.00000000
  H        5.11330687      3.31460309      0.71154473
  O        0.00000000      0.00000000      0.00000000
  H       -0.07945883     -0.74253075     -0.61522804
  C        8.81618781      0.41567737      0.34721967
  C        7.88788115      1.58867397     -0.07376332
  H        7.71045033      2.16548495      0.84501171
  C        6.50178107      1.17044093     -0.57888216
  H        6.61657955      0.58992063     -1.50580587
  C        5.77728805      0.30133295      0.48025805
  H        5.55381226      0.97702451      1.32265968
  C       10.09719075      1.22608321      0.75012025
  H        9.84740731      1.71962594      1.70127964
  C        8.08752203     -0.32998299      1.48357676
  H        7.99029990      0.34858779      2.34332769
  H        8.65749310     -1.19676401      1.83329572
  C        4.38939941     -0.22511358     -0.02801697
  C        8.76444331      2.47549620     -0.97044147
  H        8.41778515      3.51261544     -0.97777810
  H        8.74780738      2.12299898     -2.00978029
  C        6.68915346     -0.81302092      1.04647948
  H        6.81555687     -1.60407592      0.30012978
  H        6.20048885     -1.28650579      1.90591217
  C       10.18500388      2.32807101     -0.35693924
  H       10.91078132      2.03602533     -1.12521526
  H       10.54348488      3.27460884      0.05903629
  C        5.64119241      2.39545161     -0.95376933
  H        6.03972748      2.83029239     -1.87758759
  C       11.43896470      0.48104359      0.95656614
  H       11.69230717     -0.00000000      0.00000000
  C        9.13379870     -0.54518807     -0.82124137
  H        8.23150274     -0.97053034     -1.26806967
  H        9.68485756     -0.04544871     -1.62360049
  H        9.74836445     -1.38403629     -0.47722593
  C        3.62260970      0.89399071     -0.74503036
  C        3.54769111     -0.68407207      1.20280230
  H        3.59488648      0.10584311      1.96534944
  H        4.01080998     -1.57125697      1.64780881
  C        4.19705030      2.03779833     -1.15257583
  H        3.58383104      2.79823291     -1.63526976
  C        4.55512541     -1.41260344     -1.01521231
  H        4.92781482     -2.30546103     -0.50436550
  H        3.60508381     -1.68270339     -1.48279953
  H        5.25136251     -1.16336828     -1.82162897
  C        2.14525765      0.65723179     -1.00014322
  H        1.68485298      1.55681097     -1.42026668
  H        2.02006842     -0.14026937     -1.74990778
  C        2.06958148     -0.97893958      0.90497699
  H        1.97785753     -1.84247403      0.22972239
  H        1.54698254     -1.24756064      1.83002379
  C       12.61866850      1.46094257      1.22042376
  H       13.53105255      0.85972621      1.34327252
  H       12.77443629      2.04411282      0.30501398
  C        1.38617062      0.22931044      0.26520220
  H        1.38740828      1.06208849      0.97927581
  C       11.36795798     -0.64356726      2.00800382
  H       10.90263319     -0.31050015      2.94095273
  H       12.37215770     -1.00915218      2.25054463
  H       10.79193804     -1.49859369      1.64324723
  C       12.53267955      2.46514513      2.39163843
  H       13.30906830      3.22004209      2.21277925
  H       11.58023498      3.00683173      2.34692782
  C       12.73617815      1.88168517      3.80130598
  H       13.61963192      1.22692968      3.78802695
  H       11.88750314      1.23924199      4.06287070
  C       12.91728047      2.91379220      4.94097014
  H       13.00940125      2.32539310      5.86598467
  C       11.69377006      3.83026018      5.10845416
  H       11.56826776      4.49743969      4.24791641
  H       11.79741354      4.46116092      5.99868508
  H       10.77090512      3.24829606      5.21752829
  C       14.20937550      3.73667764      4.80474541
  H       14.17884186      4.40377901      3.93565559
  H       14.36519756      4.36392567      5.68995262
  H       15.08608216      3.08710021      4.69746153



