%Mem=256MB 
%NProc=48 

#P HF/6-31G* SCF(Conver=6) NoSymm Test 
   Pop=chelpg IOp(6/33=2) GFInput GFPrint 

MEP - Input generated by R.E.D.-III.x MOLECULE 

0 1 
  O        5.76395786      3.44631092      0.00000000
  H        5.12876770      3.28788624      0.71110659
  O        0.00000000      0.00000000      0.00000000
  H       -0.08311982     -0.74404795     -0.61289934
  C        8.81914909      0.36990144      0.37595581
  C        7.89607440      1.54473723     -0.05259464
  H        7.71759687      2.12647102      0.86301395
  C        6.51039345      1.13071352     -0.56297963
  H        6.62749049      0.54585946     -1.48684507
  C        5.77675879      0.26877465      0.49533047
  H        5.55378815      0.94769407      1.33528359
  C       10.10370790      1.17302960      0.78507941
  H        9.86852102      1.65069213      1.74949319
  C        8.07944504     -0.36942454      1.51018315
  H        7.98024940      0.31279335      2.36674128
  H        8.64185011     -1.23753866      1.86801783
  C        4.38812005     -0.25235314     -0.01615111
  C        8.78006445      2.42247474     -0.94856364
  H        8.42651959      3.45670896     -0.98250501
  H        8.78642411      2.04934878     -1.98077228
  C        6.68185885     -0.84814116      1.06658014
  H        6.80952205     -1.63978180      0.32101316
  H        6.18779972     -1.31981852      1.92392947
  C       10.18728302      2.29898417     -0.30264026
  H       10.94360301      2.04566991     -1.05543868
  H       10.50028755      3.24836316      0.14151782
  C        5.65733519      2.35794697     -0.94795147
  H        6.06144520      2.78580227     -1.87260999
  C       11.45047738      0.42673756      0.97359559
  H       11.73680543      0.00000000     -0.00000000
  C        9.13982053     -0.59222924     -0.79094334
  H        8.23877215     -1.01178517     -1.24590577
  H        9.70029957     -0.09403961     -1.58778757
  H        9.74754117     -1.43461070     -0.44423356
  C        3.62972389      0.86805309     -0.73988958
  C        3.54029660     -0.70307232      1.21350615
  H        3.59040540      0.08827900      1.97437642
  H        3.99661051     -1.59215082      1.66174108
  C        4.21202973      2.00684188     -1.15028161
  H        3.60467423      2.76869840     -1.63814189
  C        4.55117394     -1.44386093     -0.99897623
  H        4.91978969     -2.33641247     -0.48462694
  H        3.60101426     -1.71234768     -1.46734369
  H        5.24954735     -1.19968106     -1.80509009
  C        2.15168197      0.63926490     -0.99799860
  H        1.69789374      1.54010482     -1.42260633
  H        2.02318041     -0.16029635     -1.74498840
  C        2.06115898     -0.98939908      0.91277956
  H        1.96555498     -1.85460576      0.24020980
  H        1.53447523     -1.25155415      1.83736619
  C       12.56314211      1.42596035      1.37790011
  H       12.52277123      2.29941614      0.71737954
  H       12.34877020      1.80158585      2.39041662
  C        1.38713121      0.22101239      0.26722492
  H        1.39257770      1.05643849      0.97818878
  C       11.37046374     -0.72476912      1.99149459
  H       11.00556158     -0.36504739      2.96191800
  H       12.35255812     -1.17832004      2.15495003
  H       10.70338326     -1.52361932      1.66007838
  C       13.99786560      0.87404859      1.33409166
  H       14.10835587      0.05039909      2.04840536
  H       14.18191554      0.44815410      0.33825547
  C       15.04430074      1.95839232      1.63955282
  H       14.81848325      2.39632907      2.62271924
  H       14.92779662      2.77436661      0.91171661
  C       16.52543375      1.51339014      1.63612539
  H       17.11135523      2.41629524      1.86364332
  C       16.98939256      1.00957126      0.25935304
  H       16.49459835      0.07080512     -0.01522950
  H       18.06934494      0.82253554      0.25608673
  H       16.77515975      1.74296694     -0.52702414
  C       16.83927600      0.48447923      2.73508649
  H       16.34072146     -0.47348457      2.54733085
  H       17.91603600      0.28669563      2.78752455
  H       16.51713403      0.84191536      3.72025795



