%Mem=256MB 
%NProc=48 

#P HF/6-31G* SCF(Conver=6) NoSymm Test 
   Pop=chelpg IOp(6/33=2) GFInput GFPrint 

MEP - Input generated by R.E.D.-III.x MOLECULE 

0 1 
  O        5.74631211      3.47313686      0.00000000
  H        5.11063247      3.31003762      0.70956460
  O        0.00000000      0.00000000      0.00000000
  H       -0.08105523     -0.74291495     -0.61455094
  C        8.81650065      0.41090000      0.35087272
  C        7.88752765      1.58364929     -0.06918511
  H        7.70710008      2.15762436      0.85083502
  C        6.50286167      1.16495981     -0.57817824
  H        6.61986570      0.58511348     -1.50526398
  C        5.77743505      0.29423535      0.47917080
  H        5.55441652      0.96862880      1.32272664
  C       10.09528938      1.22117946      0.75993127
  H        9.84516288      1.70559105      1.71525396
  C        8.08623150     -0.33801032      1.48414455
  H        7.98691670      0.33834458      2.34534221
  H        8.65612647     -1.20517735      1.83324986
  C        4.38910073     -0.23094737     -0.02937870
  C        8.76551057      2.47433406     -0.96047440
  H        8.41434417      3.50989551     -0.97089290
  H        8.75769935      2.12086946     -1.99962008
  C        6.68922578     -0.82128098      1.04315660
  H        6.81808413     -1.60930547      0.29403924
  H        6.19956086     -1.29846834      1.89996578
  C       10.18229335      2.33348621     -0.33697668
  H       10.91760150      2.05583229     -1.10155505
  H       10.52775704      3.27934751      0.09190160
  C        5.64232893      2.38964223     -0.95390341
  H        6.04169724      2.82454388     -1.87733672
  C       11.43964300      0.47774328      0.95765222
  H       11.69353108      0.00000000     -0.00000000
  C        9.13877258     -0.54698602     -0.81860075
  H        8.23847326     -0.97047706     -1.27127810
  H        9.69427241     -0.04520501     -1.61668646
  H        9.75126880     -1.38713397     -0.47373696
  C        3.62321009      0.88858657     -0.74672012
  C        3.54716505     -0.68891010      1.20174830
  H        3.59591981      0.10073189      1.96447345
  H        4.00905483     -1.57691806      1.64636000
  C        4.19839721      2.03208925     -1.15404930
  H        3.58575614      2.79264536     -1.63729932
  C        4.55363187     -1.41869000     -1.01641377
  H        4.92731037     -2.31126581     -0.50583213
  H        3.60302486     -1.68938891     -1.48258140
  H        5.24861756     -1.16937555     -1.82388245
  C        2.14580817      0.65296625     -1.00190037
  H        1.68627082      1.55263069     -1.42277784
  H        2.01966368     -0.14518408     -1.75079311
  C        2.06849597     -0.98152210      0.90470005
  H        1.97510099     -1.84542239      0.23016854
  H        1.54581042     -1.24859229      1.83014571
  C       12.61070516      1.45209271      1.25624635
  H       13.53552203      0.85817849      1.28831330
  H       12.73185347      2.14416729      0.41353963
  C        1.38669450      0.22725994      0.26419931
  H        1.38977862      1.06074378      0.97745717
  C       11.38394961     -0.63495654      2.02134427
  H       10.97472705     -0.27321079      2.97128631
  H       12.38928098     -1.02486588      2.22054105
  H       10.76779074     -1.47815748      1.69895069
  C       12.51302112      2.27061723      2.55470253
  H       11.61357470      2.89774261      2.52857218
  H       12.39417794      1.59357099      3.40924376
  C       13.75142843      3.15675592      2.76808200
  H       13.86808900      3.81367649      1.89385894
  H       14.64386860      2.51428882      2.78385825
  C       13.76400518      4.03594443      4.04035458
  H       14.71726502      4.58471085      4.01763802
  C       13.75253860      3.20589706      5.33482691
  H       12.80288393      2.67442722      5.46599641
  H       13.89017689      3.84906571      6.21157132
  H       14.55640788      2.46026874      5.33814694
  C       12.64011812      5.08545911      4.04744827
  H       11.65154991      4.61954147      4.13179872
  H       12.75142146      5.77001739      4.89615017
  H       12.64926441      5.68642192      3.13050060



