%Mem=256MB 
%NProc=48 

#P HF/6-31G* SCF(Conver=6) NoSymm Test 
   Pop=chelpg IOp(6/33=2) GFInput GFPrint 

MEP - Input generated by R.E.D.-III.x MOLECULE 

0 1 
  O        0.00000000      0.00000000      0.00000000
  H       -0.22896131      0.58552904     -0.73409889
  O       -2.39392579      6.27392239      0.00000000
  H       -2.16551572      6.84639418      0.74584214
  C        4.25043116      0.52914310      0.73327865
  C        2.75126785      0.13754719      0.75937736
  H        2.49218174     -0.10972554     -0.27953933
  C        1.80562657      1.27466520      1.16149994
  H        2.01583701      1.57124367      2.19922002
  C        2.00952831      2.49810601      0.22787378
  H        1.63298219      2.18486719     -0.76009299
  C        4.86478202     -0.84391505      0.31627219
  H        4.52802133     -0.97979857     -0.72161926
  C        4.40837763      1.65408639     -0.30429984
  H        4.14563695      1.25871964     -1.29609221
  H        5.44995121      1.99673729     -0.36884197
  C        1.12657268      3.72361887      0.65387747
  C        2.71562673     -1.19258982      1.53446795
  H        1.85164503     -1.80024852      1.25150666
  H        2.64471653     -1.01753162      2.61568053
  C        3.50391960      2.85969056      0.02629417
  H        3.89258690      3.34826139      0.92519217
  H        3.59490291      3.59745437     -0.77910911
  C        4.07084130     -1.87880559      1.17422604
  H        4.61611083     -2.14533128      2.08384119
  H        3.91672279     -2.81137556      0.62169270
  C        0.33059263      0.82224706      1.14421204
  H        0.16419909      0.15201782      1.99550940
  C        6.41503409     -0.99074506      0.26367752
  H        6.81168166      0.00000000      0.00000000
  C        4.77179333      0.99535794      2.11050821
  H        4.23575837      1.87336946      2.47987280
  H        4.67378316      0.21758043      2.87310045
  H        5.83060972      1.26753440      2.04826664
  C       -0.29520826      3.26345231      1.00366878
  C        1.03871567      4.71761535     -0.54558396
  H        0.79459100      4.14375219     -1.45045212
  H        2.02378502      5.16376171     -0.71891100
  C       -0.62174472      1.97943590      1.22515597
  H       -1.65774501      1.72498584      1.44709614
  C        1.71853954      4.45369144      1.89044431
  H        2.65442465      4.96313983      1.64218243
  H        1.03264955      5.21213800      2.27589058
  H        1.91578596      3.75315145      2.70743558
  C       -1.35793350      4.34194688      1.10832534
  H       -2.34269980      3.88915115      1.25966440
  H       -1.16256431      4.97345725      1.98973803
  C       -0.00282670      5.83608533     -0.38849693
  H        0.27271658      6.50488258      0.44029990
  H       -0.02920260      6.45335815     -1.29362555
  C        7.08599376     -1.43746711      1.58601946
  H        6.62392804     -0.92820331      2.43837955
  H        6.88519586     -2.50765346      1.72992215
  C       -1.39335458      5.25994141     -0.12284691
  H       -1.71190837      4.67424808     -0.99401441
  C        6.80446017     -1.95009482     -0.88006625
  H        6.37848399     -2.94751014     -0.71365739
  H        7.88931361     -2.06568331     -0.96935821
  H        6.43261248     -1.58631792     -1.84432876
  C        8.61140821     -1.21686884      1.67081079
  H        8.97728762     -1.76235782      2.54970239
  H        9.10346078     -1.67800284      0.80614168
  C        9.02859146      0.25911398      1.78674153
  H        8.51389316      0.69966573      2.65317059
  H        8.67029297      0.81149906      0.90781009
  C       10.54423331      0.53431552      1.93379149
  H       10.64541834      1.62746685      2.00602426
  C       11.34999647      0.08819930      0.70223189
  H       11.35305451     -1.00249189      0.59398376
  H       12.39436843      0.41087384      0.78223294
  H       10.93848493      0.51496111     -0.22006786
  C       11.13512444     -0.05783837      3.22421982
  H       11.13567245     -1.15368425      3.20459502
  H       12.17323001      0.26607797      3.36082884
  H       10.56717774      0.26089221      4.10627237



