%Mem=256MB 
%NProc=48 

#P HF/6-31G* SCF(Conver=6) NoSymm Test 
   Pop=chelpg IOp(6/33=2) GFInput GFPrint 

MEP - Input generated by R.E.D.-III.x MOLECULE 

0 1 
  O        0.00000000      0.00000000      0.00000000
  H       -0.46668177      0.46172581     -0.70936747
  O       -3.20541306      5.90067270      0.00000000
  H       -2.90082353      6.58231765      0.61543194
  C        4.19616406      1.09303792     -0.35166714
  C        2.80221412      0.54986103      0.06904800
  H        2.35658382      0.14485179     -0.85064066
  C        1.81847236      1.61042643      0.57793437
  H        2.21239458      2.05168878      1.50500688
  C        1.63155428      2.72826520     -0.47915411
  H        1.09757029      2.25911328     -1.32229511
  C        4.89056079     -0.25241677     -0.76077874
  H        4.42946332     -0.54330335     -1.71594195
  C        3.94328394      2.10788725     -1.48508400
  H        3.51603850      1.57399322     -2.34609733
  H        4.87285877      2.56876918     -1.83454808
  C        0.69915579      3.88275793      0.03045123
  C        3.11072660     -0.66157794      0.96085010
  H        2.28433174     -1.37763208      0.97321494
  H        3.28428120     -0.35161095      1.99940973
  C        2.98146774      3.23048354     -1.04418498
  H        3.49078549      3.84631299     -0.29580944
  H        2.79919506      3.88897440     -1.90135545
  C        4.40334728     -1.25668877      0.33580272
  H        5.17851176     -1.39049636      1.09971078
  H        4.22179373     -2.24684905     -0.09387835
  C        0.45730486      0.98781617      0.95385728
  H        0.58236759      0.41084595      1.87735834
  C        6.42655945     -0.28893785     -0.95718557
  H        6.88478782     -0.00000000     -0.00000000
  C        4.95843394      1.75771919      0.81717084
  H        4.39532101      2.57816958      1.26946412
  H        5.18476421      1.04463309      1.61567834
  H        5.91129329      2.17330596      0.47172518
  C       -0.52771271      3.30306501      0.74677410
  C        0.20519092      4.70536690     -1.19976690
  H       -0.15085376      4.00068913     -1.96417568
  H        1.05296319      5.23911316     -1.64247604
  C       -0.60862566      2.02551733      1.15386365
  H       -1.52155357      1.67817616      1.63680236
  C        1.44110728      4.82310490      1.01913653
  H        2.21586405      5.40417165      0.51005471
  H        0.75756061      5.53731595      1.48486769
  H        1.91320422      4.25588124      1.82694088
  C       -1.68399185      4.25256459      1.00167635
  H       -2.53544300      3.70796118      1.42137830
  H       -1.39023714      5.00451224      1.75143198
  C       -0.92336012      5.70442621     -0.90235729
  H       -0.56825970      6.49626358     -0.22637629
  H       -1.23863027      6.20023604     -1.82743006
  C        6.95153461     -1.72138836     -1.24927492
  H        8.04818506     -1.66818507     -1.25955180
  H        6.69369353     -2.38116159     -0.41099618
  C       -2.12296972      5.00463115     -0.26404521
  H       -2.54029892      4.28443961     -0.97860742
  C        6.93987497      0.69629311     -2.02413632
  H        6.40729922      0.58320564     -2.97511746
  H        8.00592993      0.52879974     -2.21880097
  H        6.82874185      1.73643398     -1.70748391
  C        6.46468693     -2.37483324     -2.55363259
  H        5.36756285     -2.39012313     -2.56702207
  H        6.76508929     -1.76580065     -3.41499711
  C        6.95058989     -3.82410795     -2.74729709
  H        6.46144813     -4.24140872     -3.64009754
  H        6.59495834     -4.42647079     -1.89876951
  C        8.47249155     -4.03844758     -2.89173954
  H        8.96519645     -3.63671102     -1.99487343
  C        9.05381284     -3.31166422     -4.11489244
  H        8.57706464     -3.66335241     -5.03924011
  H       10.13012418     -3.49757038     -4.20552089
  H        8.91084251     -2.22771136     -4.05851175
  C        8.79153304     -5.54082306     -2.95646953
  H        8.32785124     -6.00144283     -3.83837269
  H        9.87158651     -5.71633665     -3.01965088
  H        8.41716292     -6.06732480     -2.07100209



