%Mem=256MB 
%NProc=48 

#P HF/6-31G* SCF(Conver=6) NoSymm Test 
   Pop=chelpg IOp(6/33=2) GFInput GFPrint 

MEP - Input generated by R.E.D.-III.x MOLECULE 

0 1 
  O        0.00000000      0.00000000      0.00000000
  H       -0.47167086      0.45562791     -0.71002219
  O       -3.27236075      5.86256000      0.00000000
  H       -2.97392292      6.54875758      0.61338193
  C        4.18407075      1.13666664     -0.36920822
  C        2.79614783      0.58115648      0.05679489
  H        2.35141561      0.16947266     -0.86041837
  C        1.80288417      1.63169008      0.56837065
  H        2.19540194      2.07802924      1.49365647
  C        1.60034116      2.74665693     -0.48843043
  H        1.07066868      2.27113875     -1.33073774
  C        4.89274336     -0.20117372     -0.78179805
  H        4.44852395     -0.49474417     -1.74626882
  C        3.91514944      2.15087296     -1.50042473
  H        3.48938203      1.61293189     -2.35967683
  H        4.83692111      2.62265841     -1.85513268
  C        0.65586844      3.89085796      0.02194675
  C        3.12050181     -0.62401376      0.94954984
  H        2.29673469     -1.34254947      0.97933573
  H        3.31056575     -0.30757928      1.98324515
  C        2.94386974      3.26317290     -1.05459791
  H        3.44872696      3.88159458     -0.30526216
  H        2.75412103      3.92219789     -1.90976080
  C        4.40218640     -1.21913190      0.30461230
  H        5.18302465     -1.37641734      1.05846457
  H        4.20161688     -2.19822657     -0.14009457
  C        0.45002876      0.99450748      0.95031270
  H        0.58486339      0.42054472      1.87429459
  C        6.43220326     -0.23147192     -0.97234770
  H        6.88953078     -0.00000000     -0.00000000
  C        4.94362824      1.80514993      0.79952715
  H        4.37401627      2.61840110      1.25675884
  H        5.17915483      1.09084293      1.59423444
  H        5.89155927      2.23066997      0.45356436
  C       -0.56187623      3.29819432      0.74317825
  C        0.14825577      4.70497254     -1.20838756
  H       -0.20192415      3.99434868     -1.96998926
  H        0.98818075      5.24771831     -1.65511076
  C       -0.62678462      2.02047377      1.15249468
  H       -1.53415757      1.66345350      1.63883189
  C        1.38946085      4.84176987      1.00670098
  H        2.15492583      5.43209411      0.49416676
  H        0.69854073      5.54769346      1.47419336
  H        1.87172184      4.28140149      1.81330464
  C       -1.72831669      4.23461433      1.00013751
  H       -2.57189100      3.68091484      1.42382382
  H       -1.44096490      4.99161325      1.74730593
  C       -0.99116793      5.69123942     -0.90945193
  H       -0.64332451      6.48868819     -0.23629688
  H       -1.31529261      6.18127808     -1.83453824
  C        6.87915508     -1.65920442     -1.37962746
  H        6.47749055     -2.38028982     -0.65831846
  H        6.40851290     -1.90094487     -2.34443843
  C       -2.18029527      4.97870061     -0.26571575
  H       -2.59159919      4.25208445     -0.97726335
  C        6.94036257      0.80058882     -1.99342358
  H        6.45671005      0.66039075     -2.96854456
  H        8.02027871      0.71053175     -2.14515336
  H        6.75016396      1.82667772     -1.67138269
  C        8.39514054     -1.91420743     -1.49892290
  H        8.52379816     -2.94796420     -1.84386917
  H        8.82411402     -1.28312607     -2.28604349
  C        9.16978465     -1.71557471     -0.18560656
  H        8.67035086     -2.29259093      0.60672056
  H        9.10339278     -0.66279515      0.12004491
  C       10.66527026     -2.11247629     -0.20469781
  H       11.05028400     -1.88346242      0.80012030
  C       11.48582607     -1.27900075     -1.20315428
  H       11.20243555     -1.49654350     -2.23942614
  H       12.55583894     -1.49495765     -1.10482968
  H       11.34569157     -0.20441850     -1.03625191
  C       10.87948621     -3.61780384     -0.43488678
  H       10.57931638     -3.92140337     -1.44434631
  H       11.93638398     -3.88268614     -0.31617480
  H       10.30296792     -4.21659450      0.28004056



