%Mem=256MB 
%NProc=48 

#P HF/6-31G* SCF(Conver=6) NoSymm Test 
   Pop=chelpg IOp(6/33=2) GFInput GFPrint 

MEP - Input generated by R.E.D.-III.x MOLECULE 

0 1 
  O        0.00000000      0.00000000      0.00000000
  H       -0.46356888      0.46151673     -0.71154473
  O       -3.20307386      5.90464206      0.00000000
  H       -2.89667646      6.58566061      0.61522804
  C        4.19641846      1.09366829     -0.34721967
  C        2.80281428      0.55003081      0.07376332
  H        2.35837968      0.14177785     -0.84501171
  C        1.81765502      1.61099902      0.57888216
  H        2.20990374      2.05408303      1.50580587
  C        1.63123358      2.72701239     -0.48025805
  H        1.09712182      2.25666664     -1.32265968
  C        4.89281832     -0.25271702     -0.75012025
  H        4.42798554     -0.55256142     -1.70127964
  C        3.94405411      2.10523906     -1.48357676
  H        3.51746013      1.56864981     -2.34332769
  H        4.87373281      2.56553665     -1.83329572
  C        0.69917864      3.88228483      0.02801697
  C        3.11154360     -0.65806733      0.97044147
  H        2.28858909     -1.37816044      0.97777810
  H        3.27519673     -0.34541944      2.00978029
  C        2.98103230      3.22833713     -1.04647948
  H        3.48961796      3.84727693     -0.30012978
  H        2.79836803      3.88378721     -1.90591217
  C        4.41210504     -1.24820835      0.35693924
  H        5.18602035     -1.36265775      1.12521526
  H        4.24351266     -2.24621591     -0.05903629
  C        0.45623224      0.98826950      0.95376933
  H        0.58061944      0.41168948      1.87758759
  C        6.42717430     -0.28725885     -0.95656614
  H        6.88876686     -0.00000000      0.00000000
  C        4.95579340      1.76261431      0.82124137
  H        4.39180434      2.58539641      1.26806967
  H        5.17905269      1.05299428      1.62360049
  H        5.90985643      2.17628218      0.47722593
  C       -0.52780161      3.30359634      0.74503036
  C        0.20446015      4.70348479     -1.20280230
  H       -0.15371366      3.99786101     -1.96534944
  H        1.05221680      5.23535394     -1.64780881
  C       -0.60961707      2.02626158      1.15257583
  H       -1.52291887      1.67959395      1.63526976
  C        1.44190484      4.82353668      1.01521231
  H        2.21447492      5.40596913      0.50436550
  H        0.75830794      5.53643800      1.48279953
  H        1.91697528      4.25681599      1.82162897
  C       -1.68336694      4.25401342      1.00014322
  H       -2.53504005      3.71007586      1.42026668
  H       -1.38868010      5.00557187      1.74990778
  C       -0.92241409      5.70443901     -0.90497699
  H       -0.56549580      6.49609194     -0.22972239
  H       -1.23782439      6.20020436     -1.83002379
  C        6.95054664     -1.72878043     -1.22042376
  H        8.04165737     -1.67061582     -1.34327252
  H        6.79049030     -2.31078826     -0.30501398
  C       -2.12244735      5.00670074     -0.26520220
  H       -2.54193394      4.28729000     -0.97927581
  C        6.93381819      0.71927157     -2.00800382
  H        6.36398833      0.66678544     -2.94095273
  H        7.98518227      0.52769132     -2.25054463
  H        6.86843533      1.74815166     -1.64324723
  C        6.36920342     -2.55210112     -2.39163843
  H        6.65809381     -3.59574437     -2.21277925
  H        5.27357838     -2.53865386     -2.34692782
  C        6.83949535     -2.15127358     -3.80130598
  H        7.93267322     -2.03228853     -3.78802695
  H        6.43142396     -1.16818648     -4.06287070
  C        6.47459158     -3.13356082     -4.94097014
  H        6.85124559     -2.67222417     -5.86598467
  C        4.95573929     -3.30670525     -5.10845416
  H        4.51048881     -3.81918093     -4.24791641
  H        4.72658952     -3.90358723     -5.99868508
  H        4.45309118     -2.33835262     -5.21752829
  C        7.17426302     -4.49631902     -4.80474541
  H        6.81102115     -5.05668666     -3.93565559
  H        6.99199414     -5.11639858     -5.68995262
  H        8.25900240     -4.37839593     -4.69746153



