%Mem=256MB 
%NProc=48 

#P HF/6-31G* SCF(Conver=6) NoSymm Test 
   Pop=chelpg IOp(6/33=2) GFInput GFPrint 

MEP - Input generated by R.E.D.-III.x MOLECULE 

0 1 
  O        6.72980708      0.82043107      0.00000000
  H        7.24077167      0.00000000     -0.00000000
  O       11.39838285     -1.41213331      4.27869866
  H       11.34197806     -1.12569027      5.20116078
  C        2.97313601     -0.06753810      2.00454077
  C        4.19588044      0.59052715      1.30230855
  H        4.44068744     -0.06743102      0.45704116
  C        5.47059345      0.66374418      2.15126268
  H        5.29724337      1.32918874      3.00909632
  C        5.86088475     -0.74477814      2.66957389
  H        6.17451036     -1.31627578      1.78009946
  C        1.92746029      0.06716445      0.84300719
  H        2.29746083     -0.61649649      0.06664232
  C        3.39689502     -1.50064083      2.37922571
  H        3.59991480     -2.06491197      1.45834325
  H        2.59395953     -2.03241074      2.90350542
  C        7.11064160     -0.70568059      3.61747933
  C        3.63648769      1.88578440      0.68875088
  H        4.22868677      2.21599919     -0.16928127
  H        3.64646220      2.70307870      1.42127851
  C        4.65519124     -1.50695150      3.27137398
  H        4.39207641     -1.07944384      4.24425208
  H        4.93932480     -2.54747082      3.46640156
  C        2.17889427      1.50891698      0.29613819
  H        1.46539420      2.22335469      0.71938352
  H        2.02992495      1.53361739     -0.78886961
  C        6.63972694      1.29348539      1.36472885
  H        6.44277394      2.36558847      1.24980825
  C        0.41555643     -0.27265758      0.98244435
  H        0.00000000      0.00000000      0.00000000
  C        2.54365086      0.70890596      3.27131399
  H        3.38377136      0.88900747      3.94708966
  H        2.11070913      1.68346604      3.03172468
  H        1.79471568      0.14625917      3.83634157
  C        8.19144279      0.21841755      3.04082505
  C        7.70310680     -2.14524892      3.72272873
  H        7.78951164     -2.55655643      2.70734094
  H        6.99719652     -2.78917165      4.25805856
  C        7.95912945      1.09905845      2.05346268
  H        8.78217253      1.70680178      1.67856270
  C        6.73650303     -0.19346983      5.03510726
  H        6.10821617     -0.91514735      5.56566459
  H        7.62417883     -0.02653144      5.65020625
  H        6.19748464      0.75727946      4.98339484
  C        9.57831884      0.11241103      3.64823050
  H       10.28316271      0.73960266      3.09367312
  H        9.56257005      0.49395582      4.68166322
  C        9.08065012     -2.23335623      4.39727976
  H        9.01102778     -1.93797933      5.45458713
  H        9.43882164     -3.26898316      4.38426245
  C        0.10859259     -1.77603227      1.18970522
  H        0.51469926     -2.09574408      2.15790613
  H       -0.98088444     -1.87809496      1.28647484
  C       10.09608392     -1.33329923      3.69378478
  H       10.24214113     -1.69093611      2.66704924
  C       -0.39115756      0.54478704      2.01180889
  H       -0.21483844      0.20589444      3.03694525
  H       -1.46291358      0.42875917      1.81387595
  H       -0.16808835      1.61485865      1.97031627
  C        0.59918899     -2.75644116      0.10632992
  H        1.69516481     -2.75730549      0.07491410
  H        0.31863876     -3.77071173      0.41840738
  C        0.08130653     -2.50111003     -1.32232753
  H        0.52158005     -3.25869273     -1.98756345
  H        0.46380827     -1.53551813     -1.67966883
  C       -1.44950719     -2.51987893     -1.51776110
  H       -1.88982111     -1.75217089     -0.86504090
  C       -2.07355166     -3.87266915     -1.13950789
  H       -1.64815967     -4.68098631     -1.74859861
  H       -3.15636737     -3.86498374     -1.30856382
  H       -1.90668849     -4.12541291     -0.08744970
  C       -1.80415504     -2.14927876     -2.96686892
  H       -1.39526297     -2.88629485     -3.67001670
  H       -2.88954515     -2.11554757     -3.11531391
  H       -1.39754104     -1.16868231     -3.23981968



