%Mem=256MB 
%NProc=12 

#P HF/6-31G* SCF(Conver=6) NoSymm Test 
   Pop=mk IOp(6/33=2) GFInput GFPrint 

MEP - Input generated by R.E.D.-III.x MOLECULE 

0 1 
  C        1.75879864     -1.24844497     -0.06305016
  H        1.87235085     -1.13290189     -1.14789779
  C        3.15062350     -1.30551087      0.58237010
  H        3.72774052     -2.12754939      0.14729207
  H        3.01206558     -1.54581607      1.64907221
  C        3.91405784     -0.00107842      0.45419079
  C        3.19046634      1.28378934      0.87259138
  C        1.74812448      1.25578063      0.27670553
  H        1.81842480      1.44114470     -0.80416604
  H        1.16587350      2.08302396      0.69550121
  C        0.97869688     -0.05683832      0.48986710
  H        0.78595784     -0.22076756      1.56056825
  H        0.00000000      0.00000000      0.00000000
  C        5.17452538     -0.00000000     -0.00000000
  H        5.63460455     -0.93851207     -0.31114592
  C        6.05852202      1.20660707     -0.11670496
  H        6.28543032      1.39223858     -1.17925261
  C        5.48351684      2.48026029      0.52150799
  H        5.69260200      2.41478614      1.59454083
  C        3.94583076      2.53112289      0.29345934
  H        3.80059961      2.48107184     -0.79858771
  C        3.34477159      3.87891405      0.75684875
  H        3.36075610      3.93626150      1.85048802
  H        2.28973975      3.92892757      0.46628875
  C        4.06634159      5.11433372      0.18436538
  H        3.92402186      5.14421723     -0.90514819
  H        3.59231576      6.01672459      0.58813810
  C        5.57476920      5.08893170      0.49242392
  C        6.13326274      3.74539684     -0.06612755
  H        5.86287937      3.74454893     -1.13646823
  C        7.66292506      3.92002429      0.00000000
  H        8.18602319      3.27716552     -0.71258300
  H        8.03951776      3.64638362      0.99084911
  C        7.87718226      5.43242018     -0.29075945
  H        8.50327098      5.88968547      0.48219973
  H        8.39718124      5.59684705     -1.24116075
  C        6.45997971      6.08577567     -0.33288431
  H        6.10563133      5.96881210     -1.36628910
  C        5.80824017      5.21654557      2.01607634
  H        5.45141583      4.33895725      2.56102146
  H        6.86552214      5.33778205      2.26366083
  H        5.27350958      6.08231753      2.41741128
  C        6.49262534      7.62416781     -0.09949548
  H        7.25023770      7.97567485     -0.81928021
  C        6.97186208      8.10718802      1.28447731
  H        6.19254193      8.01051963      2.04601778
  H        7.23992103      9.16849062      1.23015123
  H        7.85425699      7.56713709      1.63932415
  C        3.11513199      1.32322334      2.42221373
  H        2.48383449      2.14731069      2.76851837
  H        2.68961540      0.40042231      2.82590177
  H        4.10934698      1.44012857      2.86292756
  O        7.39486039      0.89905941      0.35488934
  O        7.34803439      0.64269704      1.78970902
  H        7.39805431     -0.32710883      1.80610479
  O        1.05454960     -2.48415401      0.08512255
  H        0.89118470     -2.63700045      1.02647949
  C        5.18485808      8.36515294     -0.46724198
  H        4.36985794      8.02828677      0.18705112
  H        5.33266364      9.42842715     -0.22906199
  C        4.73945812      8.26818072     -1.93488689
  H        5.58132792      8.55772846     -2.57857984
  H        4.50022798      7.22920976     -2.18755523
  C        3.52332091      9.16069199     -2.23241595
  H        3.77598783     10.19791686     -1.96876770
  H        2.70239250      8.87016809     -1.56073299
  C        2.99062812      9.14551527     -3.68425849
  H        2.13489064      9.83674975     -3.69808284
  C        4.01726730      9.67852199     -4.69742559
  H        4.87953149      9.00819518     -4.79035569
  H        3.56922447      9.77382367     -5.69312599
  H        4.39167079     10.66631532     -4.40391773
  C        2.46142435      7.76543383     -4.10861014
  H        3.26873362      7.02763396     -4.18200328
  H        1.97818478      7.81855908     -5.09090303
  H        1.72300029      7.38399354     -3.39349371



