%Mem=256MB 
%NProc=12 

#P HF/6-31G* SCF(Conver=6) NoSymm Test 
   Pop=mk IOp(6/33=2) GFInput GFPrint 

MEP - Input generated by R.E.D.-III.x MOLECULE 

0 1 
  C        7.50806223      2.21765692      0.07498387
  H        7.33893651      2.19077739      1.15846328
  C        6.81895001      1.00672626     -0.56905247
  H        7.19807703      0.08233116     -0.12279206
  H        7.10807569      0.98544304     -1.63256609
  C        5.30696061      1.06164889     -0.45526002
  C        4.61789095      2.35644182     -0.89734756
  C        5.40152877      3.56530468     -0.29745318
  H        5.19361396      3.60893947      0.78075120
  H        5.01898083      4.49803922     -0.72535180
  C        6.92480509      3.51187407     -0.49137582
  H        7.17964256      3.58224603     -1.55921220
  H        7.39454269      4.37152390      0.00000000
  C        4.62878832     -0.00000000      0.00000000
  H        5.16798885     -0.89261301      0.30925175
  C        3.13496444     -0.10339423      0.09213654
  H        2.82751291     -0.21341478      1.14370472
  C        2.37401775      1.06178065     -0.56162970
  H        2.31740806      0.84082237     -1.63566809
  C        3.15128171      2.39060830     -0.34639891
  H        3.24906462      2.50645018      0.74534656
  C        2.33376645      3.60059558     -0.85280841
  H        2.29281262      3.58638696     -1.94739142
  H        2.84843944      4.52885494     -0.58220886
  C        0.89548354      3.66613477     -0.30390538
  H        0.92701509      3.83244841      0.78263552
  H        0.39944585      4.54016938     -0.73692877
  C        0.11169050      2.36735519     -0.58103250
  C        0.95440581      1.20398309      0.01850109
  H        1.09575165      1.47186530      1.07977158
  C        0.00000000      0.00000000      0.00000000
  H        0.27734520     -0.76057003      0.73649179
  H        0.01557862     -0.49298507     -0.97719601
  C       -1.38849527      0.62646503      0.29897007
  H       -2.13382103      0.28436555     -0.42903291
  H       -1.75734601      0.32161513      1.28296676
  C       -1.22401554      2.18223473      0.22145540
  H       -1.01998733      2.55313130      1.23869297
  C       -0.14167654      2.19066996     -2.09575201
  H        0.78666617      2.11671357     -2.66771102
  H       -0.72457533      1.29016396     -2.31077378
  H       -0.69972283      3.04328229     -2.49615533
  C       -2.51576033      2.89319295     -0.26023916
  H       -2.77352852      2.48640652     -1.25017944
  C       -2.35793020      4.41750553     -0.40031712
  H       -2.02560004      4.86598835      0.54454360
  H       -3.30571676      4.88924348     -0.67569690
  H       -1.63309376      4.68900630     -1.17074297
  C        4.65235965      2.43029036     -2.44735033
  H        4.30915885      3.40492088     -2.80824481
  H        5.66484824      2.28273486     -2.83200185
  H        4.02345756      1.65496266     -2.89487284
  O        2.68032090     -1.28738752     -0.61114821
  O        3.15092839     -2.45391393      0.12913621
  H        2.30302720     -2.82366211      0.42555924
  O        8.93081055      2.15402148     -0.05814461
  H        9.15437073      2.16660401     -0.99944666
  C       -3.69394081      2.55997340      0.68933488
  H       -3.73088503      1.47664019      0.85359058
  H       -3.48537716      3.00939831      1.67113646
  C       -5.08043745      3.00276169      0.19135480
  H       -5.14687212      4.09616181      0.15606339
  H       -5.20504996      2.66127645     -0.84613767
  C       -6.25346713      2.44461207      1.01842430
  H       -6.21699094      1.34621941      0.97975143
  H       -7.19616963      2.73375812      0.53053199
  C       -6.32562131      2.87695736      2.49857532
  H       -5.39166148      2.57190243      2.99209901
  C       -6.46850569      4.39880150      2.65929340
  H       -7.37738159      4.75945460      2.16012869
  H       -6.53955106      4.67535145      3.71740026
  H       -5.61768407      4.94119414      2.23432483
  C       -7.47933872      2.14959551      3.20752757
  H       -8.44490356      2.41871103      2.76017879
  H       -7.52182128      2.41153615      4.27091782
  H       -7.37089170      1.06134370      3.13412649



