%Mem=256MB 
%NProc=12 

#P HF/6-31G* SCF(Conver=6) NoSymm Test 
   Pop=mk IOp(6/33=2) GFInput GFPrint 

MEP - Input generated by R.E.D.-III.x MOLECULE 

0 1 
  C        1.75846698     -1.24914211     -0.05864674
  H        1.87153462     -1.13740537     -1.14394773
  C        3.15074659     -1.30429061      0.58620759
  H        3.72768205     -2.12739191      0.15290873
  H        3.01289389     -1.54188087      1.65360467
  C        3.91383474     -0.00019016      0.45432393
  C        3.19024875      1.28550854      0.87025833
  C        1.74815203      1.25640316      0.27412217
  H        1.81873166      1.43913619     -0.80718307
  H        1.16586663      2.08473127      0.69077744
  C        0.97847035     -0.05560498      0.49045708
  H        0.78514706     -0.21644540      1.56152435
  H        0.00000000      0.00000000      0.00000000
  C        5.17428925      0.00000000      0.00000000
  H        5.63438829     -0.93915564     -0.30915834
  C        6.05821873      1.20644628     -0.11915818
  H        6.28441750      1.39067074     -1.18210874
  C        5.48338298      2.48071044      0.51773967
  H        5.69160652      2.41567667      1.59097890
  C        3.94582798      2.53177951      0.28908685
  H        3.80070755      2.47985750     -0.80288840
  C        3.34506870      3.88042408      0.74994350
  H        3.36083360      3.93995202      1.84343607
  H        2.29016900      3.93017727      0.45899215
  C        4.06725182      5.11418178      0.17484368
  H        3.92653272      5.14008703     -0.91489451
  H        3.59249391      6.01814097      0.57423273
  C        5.57508939      5.08948407      0.48537620
  C        6.13457124      3.74515743     -0.07016970
  H        5.86695704      3.74291653     -1.14118392
  C        7.66420097      3.91940282     -0.00000000
  H        8.18882563      3.27684921     -0.71167984
  H        8.03818371      3.64496150      0.99161215
  C        7.87984478      5.43193586     -0.28915010
  H        8.50110065      5.88933012      0.48769629
  H        8.40559385      5.59674574     -1.23634010
  C        6.46296970      6.08554024     -0.33852204
  H        6.11226299      5.96608809     -1.37324278
  C        5.80591622      5.21838057      2.00940026
  H        5.45108954      4.33982172      2.55407725
  H        6.86241060      5.34298156      2.25856271
  H        5.26789585      6.08245801      2.40990107
  C        6.49664926      7.62394895     -0.10855301
  H        7.26661704      7.97147310     -0.81416794
  C        6.96083767      8.11090548      1.27915760
  H        6.17561630      8.01259536      2.03454543
  H        7.22535735      9.17314854      1.22530838
  H        7.84257908      7.57486562      1.64188952
  C        3.11449639      1.32749267      2.41984685
  H        2.48413111      2.15287242      2.76477479
  H        2.68762845      0.40580448      2.82476755
  H        4.10873988      1.44385136      2.86067881
  O        7.39492245      0.89969120      0.35196021
  O        7.34925259      0.64574221      1.78726633
  H        7.40010306     -0.32398594      1.80522859
  O        1.05414546     -2.48426813      0.09406138
  H        0.89094823     -2.63373378      1.03598926
  C        5.18764989      8.36252427     -0.48195234
  H        4.38983926      8.04344330      0.20079536
  H        5.34287159      9.43113605     -0.27344412
  C        4.68200025      8.23476065     -1.93236038
  H        4.46075478      7.18651562     -2.16293821
  H        3.72172851      8.76276494     -1.99134190
  C        5.64416208      8.81055583     -2.98476268
  H        6.58062413      8.23715004     -2.97483587
  H        5.91374926      9.83542561     -2.68957867
  C        5.12470774      8.84657001     -4.44194684
  H        5.94444902      9.26730539     -5.04295108
  C        4.83025603      7.44417646     -5.00002686
  H        3.97835511      6.97790467     -4.49165767
  H        4.58684726      7.49244209     -6.06757123
  H        5.69422994      6.77905740     -4.88467222
  C        3.91365635      9.77730962     -4.62064023
  H        3.02717874      9.39480104     -4.10180453
  H        3.65286444      9.87678927     -5.68052517
  H        4.12151304     10.78137294     -4.23245540



