%Mem=256MB 
%NProc=12 

#P HF/6-31G* SCF(Conver=6) NoSymm Test 
   Pop=mk IOp(6/33=2) GFInput GFPrint 

MEP - Input generated by R.E.D.-III.x MOLECULE 

0 1 
  C       -1.01101145      1.98008301      1.68853451
  H       -0.99514665      1.00135444      2.18359622
  C        0.31684942      2.70006313      1.96121966
  H        0.47389969      2.79442609      3.04001293
  H        0.22824638      3.72462825      1.56435628
  C        1.50345959      2.00731814      1.31773713
  C        1.38947950      1.66050029     -0.17008884
  C       -0.00866402      1.01447828     -0.42241116
  H        0.00000000      0.00000000      0.00000000
  H       -0.17047173      0.90094197     -1.49957049
  C       -1.19553359      1.77826234      0.18484401
  H       -1.30800408      2.76070624     -0.29709065
  H       -2.12651957      1.23035496      0.00000000
  C        2.59743361      1.73771257      2.04212345
  H        2.62268125      1.99668462      3.09824555
  C        3.86116346      1.12594712      1.51343273
  H        4.03582920      0.14776308      1.98791456
  C        3.90864177      0.98697358     -0.01711351
  H        4.21077415      1.96495611     -0.41361140
  C        2.49670253      0.62158472     -0.55872840
  H        2.21474388     -0.31443772     -0.04944309
  C        2.53790729      0.30961918     -2.07317514
  H        2.71712048      1.23159210     -2.63654345
  H        1.55774954     -0.05680308     -2.39663898
  C        3.60245457     -0.73073377     -2.47113649
  H        3.34201106     -1.70293865     -2.02938006
  H        3.57569479     -0.86269567     -3.55910032
  C        5.00824371     -0.32301285     -1.99220737
  C        4.91611405     -0.09278513     -0.45365568
  H        4.52255938     -1.03870340     -0.04472511
  C        6.38552407     -0.00000000     -0.00000000
  H        6.50852089     -0.26585482      1.05448939
  H        6.76061809      1.02254662     -0.10892020
  C        7.13212614     -0.98225173     -0.94636989
  H        7.98610852     -0.48714024     -1.41944650
  H        7.53956930     -1.84331465     -0.40501544
  C        6.09101621     -1.45717863     -2.00810849
  H        5.58126097     -2.32175057     -1.56170508
  C        5.47540423      0.94989616     -2.73561700
  H        4.87359943      1.82320632     -2.47177673
  H        6.51634928      1.19977826     -2.51571452
  H        5.38947744      0.81791059     -3.81789998
  C        6.75432172     -2.01351028     -3.30159465
  H        7.48028759     -2.75033645     -2.91979389
  C        7.57274881     -1.01548149     -4.14589422
  H        6.93259056     -0.37194925     -4.75634271
  H        8.22589842     -1.56545163     -4.83287754
  H        8.21247353     -0.36948998     -3.53781537
  C        1.51512343      2.96975018     -0.99435572
  H        1.28906644      2.79912777     -2.05158425
  H        0.82214195      3.73556480     -0.63638650
  H        2.52273159      3.38945312     -0.91997447
  O        4.99213877      1.96984963      1.84719421
  O        5.16912899      1.92570708      3.29529959
  H        6.02999484      1.47913193      3.35020383
  O       -2.11785872      2.65780249      2.28983800
  H       -2.18799547      3.54109886      1.90118074
  C        5.80275454     -2.80180676     -4.23498372
  H        5.01054924     -2.13747728     -4.60556235
  H        6.38561522     -3.08708895     -5.12042354
  C        5.17023204     -4.06748717     -3.63598681
  H        5.96653188     -4.72820058     -3.26661353
  H        4.57100761     -3.80339954     -2.75682606
  C        4.25353579     -4.83919130     -4.60446018
  H        3.44025552     -4.17030607     -4.92147629
  H        3.77163858     -5.65832517     -4.05028292
  C        4.91035323     -5.43821076     -5.86664350
  H        5.37176780     -4.62075582     -6.43879385
  C        6.01053210     -6.45681325     -5.52881519
  H        5.60467389     -7.28535053     -4.93373244
  H        6.44144541     -6.88403608     -6.44141668
  H        6.82948098     -6.00715207     -4.95803309
  C        3.84033095     -6.07908064     -6.76527031
  H        3.34468607     -6.91218429     -6.25034917
  H        4.28002505     -6.47399778     -7.68822881
  H        3.06723080     -5.35428772     -7.04537784



