%Mem=256MB 
%NProc=12 

#P HF/6-31G* SCF(Conver=6) NoSymm Test 
   Pop=mk IOp(6/33=2) GFInput GFPrint 

MEP - Input generated by R.E.D.-III.x MOLECULE 

0 1 
  C       -1.00351073      1.98101957      1.68993661
  H       -0.98798992      1.00162149      2.18357582
  C        0.32556950      2.69962793      1.96239181
  H        0.48177163      2.79382412      3.04167226
  H        0.23651007      3.72379371      1.56491391
  C        1.51231313      2.00986343      1.31706069
  C        1.39877561      1.65319447     -0.16928034
  C       -0.00325567      1.01530841     -0.42040023
  H        0.00000000      0.00000000      0.00000000
  H       -0.16381066      0.90378841     -1.49768599
  C       -1.18797352      1.78252676      0.18630354
  H       -1.29641530      2.76634463     -0.29412035
  H       -2.12061173      1.23798288      0.00000000
  C        2.61079114      1.74443767      2.03685739
  H        2.63119808      1.99392628      3.09828908
  C        3.87207743      1.12702415      1.50851945
  H        4.02705027      0.14644918      1.98740707
  C        3.91358979      0.97097521     -0.01922619
  H        4.21420037      1.94228843     -0.42679859
  C        2.49966480      0.60156087     -0.54778030
  H        2.21275977     -0.32519645     -0.02346706
  C        2.53234566      0.26487199     -2.05589345
  H        2.70281682      1.17871717     -2.63536279
  H        1.55341887     -0.11384789     -2.36962575
  C        3.60142233     -0.77441713     -2.44551289
  H        3.35401240     -1.74204583     -1.98524067
  H        3.55812237     -0.92604719     -3.52845136
  C        5.01029444     -0.35352733     -1.98194871
  C        4.92146064     -0.11061541     -0.44700473
  H        4.53739496     -1.05830685     -0.02949964
  C        6.38775146     -0.00000000     -0.00000000
  H        6.52022231     -0.22028881      1.06231116
  H        6.76126486      1.01826844     -0.14872425
  C        7.12500820     -1.01566011     -0.91350204
  H        8.01206219     -0.55873363     -1.36855547
  H        7.48284937     -1.87477832     -0.33790520
  C        6.11386006     -1.46807731     -2.02157506
  H        5.62387826     -2.39326809     -1.67773958
  C        5.48746820      0.90194095     -2.74799025
  H        4.84480306      1.76790006     -2.57043941
  H        6.50279854      1.19269706     -2.46347963
  H        5.49093216      0.71803206     -3.82733797
  C        6.81219970     -1.80765884     -3.36431381
  H        7.36613617     -0.91343956     -3.68846245
  C        5.82594239     -2.18999114     -4.48283346
  H        5.16395171     -3.00265603     -4.15842296
  H        6.35415332     -2.53265603     -5.37778152
  H        5.19800746     -1.34967584     -4.78766828
  C        1.53607415      2.95750329     -0.99912098
  H        1.32048437      2.77992597     -2.05724781
  H        0.83983503      3.72671868     -0.65374727
  H        2.54424490      3.37365320     -0.91637304
  O        5.03102296      1.82542872      2.03073605
  O        5.05775087      3.17888645      1.48870561
  H        4.72653678      3.68837598      2.24635766
  O       -2.10701129      2.65996463      2.29509552
  H       -2.20079376      3.52954841      1.88130165
  C        7.85097011     -2.94099446     -3.16128991
  H        8.39945589     -2.76576698     -2.23100679
  H        7.31189399     -3.89118657     -3.02192026
  C        8.86966901     -3.09694647     -4.30241490
  H        8.34534206     -3.22316625     -5.25734644
  H        9.44408818     -2.16560064     -4.39933440
  C        9.82829692     -4.29168463     -4.14049923
  H       10.44754420     -4.36867362     -5.04665475
  H        9.23087230     -5.21423636     -4.10394258
  C       10.77000015     -4.27337043     -2.91738467
  H       10.15476095     -4.21641338     -2.00809951
  C       11.57173792     -5.58305901     -2.84746270
  H       12.21369652     -5.69629244     -3.73064259
  H       12.21764924     -5.60797692     -1.96235448
  H       10.90928859     -6.45528125     -2.80408919
  C       11.71622418     -3.06234307     -2.92357814
  H       12.33995311     -3.06059426     -3.82707901
  H       12.38722434     -3.08552121     -2.05736420
  H       11.17253855     -2.11259389     -2.89263097



