%Mem=256MB 
%NProc=12 

#P HF/6-31G* SCF(Conver=6) NoSymm Test 
   Pop=mk IOp(6/33=2) GFInput GFPrint 

MEP - Input generated by R.E.D.-III.x MOLECULE 

0 1 
  C        0.99730444     -0.88127943     -1.69844602
  H        1.14816104      0.08955705     -2.18615787
  C        2.21226002     -1.77668417     -1.98012199
  H        2.35110295     -1.88419660     -3.06052332
  H        1.98192301     -2.78112693     -1.58914153
  C        3.48532754     -1.26399643     -1.33437248
  C        3.42640211     -0.90705161      0.15514409
  C        2.12876346     -0.07956458      0.41451367
  H        2.27415452      0.92772602      0.00000000
  H        1.98772641      0.04668183      1.49291222
  C        0.84648404     -0.66878067     -0.19296848
  H        0.60242909     -1.63078104      0.28178904
  H        0.00000000      0.00000000      0.00000000
  C        4.60756997     -1.14736613     -2.05693436
  H        4.58964846     -1.38803353     -3.12043935
  C        5.94383645     -0.71545389     -1.52897391
  H        6.22922725      0.24198716     -1.99463018
  C        6.01202094     -0.58980905      0.00059673
  H        6.16721890     -1.60114761      0.39105995
  C        4.66646151     -0.02550177      0.53906252
  H        4.51382838      0.93674325      0.02237106
  C        4.74494074      0.29359188      2.05058155
  H        4.78304708     -0.63777823      2.62561780
  H        3.82919659      0.80612986      2.36470883
  C        5.95108286      1.16908541      2.44210537
  H        5.83957889      2.16286719      1.98600630
  H        5.93956131      1.31892080      3.52818743
  C        7.28153118      0.55008965      1.97604795
  C        7.16810891      0.32694391      0.43786012
  H        6.92996896      1.32051059      0.01976067
  C        8.60920229     -0.00000000      0.00000000
  H        8.78419143      0.22593429     -1.05493468
  H        8.81598588     -1.06815793      0.12137967
  C        9.49047257      0.85998252      0.94949435
  H       10.25059890      0.24138118      1.43768904
  H       10.03517826      1.64080261      0.40695561
  C        8.52686908      1.50313209      1.99583762
  H        8.16140987      2.43264106      1.53733493
  C        7.54292552     -0.77605205      2.72808160
  H        6.82635833     -1.55326289      2.45103354
  H        8.53985149     -1.17562596      2.52752762
  H        7.45629473     -0.63092238      3.80874775
  C        9.25754910      1.96183564      3.29080203
  H       10.10568277      2.55150295      2.90979031
  C        9.88438276      0.85691044      4.16520343
  H        9.13624616      0.33569208      4.76968183
  H       10.60568903      1.30316126      4.85938325
  H       10.42121745      0.10667423      3.57759784
  C        3.37932534     -2.22403711      0.97488474
  H        3.19199232     -2.02604786      2.03474297
  H        2.58158188     -2.88503891      0.62521186
  H        4.31868882     -2.77742336      0.88709769
  O        6.99411781     -1.55729560     -2.06840242
  O        6.83756390     -2.91000701     -1.54660338
  H        6.44074819     -3.35850731     -2.31124555
  O       -0.19191798     -1.39542903     -2.30366314
  H       -0.40468788     -2.24643241     -1.89534209
  C        8.43435210      2.90889697      4.19790478
  H        7.56781085      2.36473284      4.59461421
  H        9.05340918      3.14296798      5.07465589
  C        7.93968978      4.23122096      3.57952076
  H        7.22414172      4.02081586      2.77575210
  H        7.36369153      4.76632739      4.34548678
  C        9.02888954      5.16435942      3.01628126
  H        8.53551118      6.05270013      2.59459015
  H        9.52606179      4.67196313      2.16966330
  C       10.11301859      5.64033808      4.00630499
  H       10.61800113      4.75403860      4.41703940
  C       11.17447874      6.47396807      3.27049660
  H       10.73034912      7.38124998      2.84104329
  H       11.97655876      6.78628389      3.94898013
  H       11.63043059      5.90712901      2.45059739
  C        9.52539590      6.43442156      5.18385511
  H        8.98758690      7.32162746      4.82474948
  H       10.31795135      6.77778672      5.85843649
  H        8.82473776      5.83750270      5.77655775



