%Mem=256MB 
%NProc=12 

#P HF/6-31G* SCF(Conver=6) NoSymm Test 
   Pop=mk IOp(6/33=2) GFInput GFPrint 

MEP - Input generated by R.E.D.-III.x MOLECULE 

0 1 
  C        1.75965415     -1.24724266     -0.07472397
  H        1.87348417     -1.11839094     -1.15808392
  C        3.15107725     -1.31242178      0.56995197
  H        3.72966530     -2.12716498      0.12406515
  H        3.01404864     -1.56793833      1.63344704
  C        3.91299066     -0.00536167      0.45574893
  C        3.18727647      1.26948071      0.89733936
  C        1.74653310      1.25349109      0.29787082
  H        1.82028075      1.45312738     -0.78028083
  H        1.16275844      2.07499683      0.72646533
  C        0.97754767     -0.06253036      0.49152414
  H        0.78168544     -0.24039113      1.55933996
  H        0.00000000      0.00000000      0.00000000
  C        5.17256800      0.00000000     -0.00000000
  H        5.63858901     -0.93301042     -0.30895210
  C        6.05814467      1.20734837     -0.09383514
  H        6.31277816      1.40879020     -1.14600332
  C        5.48129601      2.47305043      0.56135929
  H        5.69832567      2.40153420      1.63530649
  C        3.94251853      2.52693385      0.34546440
  H        3.79322985      2.50473410     -0.74639416
  C        3.35474982      3.86504427      0.84932053
  H        3.38483374      3.89265937      1.94393702
  H        2.29602241      3.92538715      0.57508573
  C        4.06962181      5.11572677      0.30225661
  H        3.91350648      5.17912344     -0.78438759
  H        3.59792922      6.00311475      0.73615197
  C        5.58496792      5.08162506      0.58244533
  C        6.12014769      3.74906285     -0.01755460
  H        5.81759015      3.77320098     -1.07854498
  C        7.64906951      3.91293117      0.00000000
  H        8.14031538      3.28512373     -0.74999426
  H        8.06063779      3.61758605      0.97030190
  C        7.86357124      5.42760651     -0.26946479
  H        8.52525404      5.86342983      0.48831741
  H        8.34812179      5.60150071     -1.23564000
  C        6.45751883      6.10895271     -0.21946813
  H        6.04517700      6.11267463     -1.23924929
  C        5.86315112      5.20188668      2.09798505
  H        5.42633845      4.37830665      2.66834529
  H        6.93462200      5.21318401      2.31883814
  H        5.43790035      6.12968459      2.49500019
  C        6.52960881      7.58171725      0.25535362
  H        6.94590572      7.57576033      1.27327345
  C        5.15887073      8.28077701      0.32687429
  H        4.60060620      8.18382562     -0.61099209
  H        5.28566276      9.35107729      0.52833170
  H        4.53276110      7.87419533      1.12502657
  C        3.10686626      1.28061696      2.44737432
  H        2.46709866      2.09207170      2.80816432
  H        2.69008116      0.34643130      2.83272967
  H        4.09847428      1.39744837      2.89457893
  O        7.30352915      0.95873774      0.60625037
  O        8.03647313     -0.06180953     -0.13637065
  H        8.80057674      0.45801389     -0.43548727
  O        1.05265878     -2.48360735      0.05769189
  H        0.92144826     -2.66579706      0.99884919
  C        7.52118206      8.42679963     -0.59073087
  H        7.59086581      9.41414870     -0.11575142
  H        8.52571870      7.99071803     -0.51815975
  C        7.17109815      8.60465527     -2.07772713
  H        7.06340594      7.61894098     -2.54795532
  H        6.19352979      9.09153442     -2.17879944
  C        8.22708565      9.38845498     -2.88062818
  H        7.94925972      9.36144866     -3.94484149
  H        9.18689085      8.85691249     -2.80539983
  C        8.45516106     10.86270657     -2.48346705
  H        8.74694050     10.89450498     -1.42405599
  C        9.61630864     11.45634367     -3.29733590
  H        9.38256266     11.45599414     -4.36983804
  H        9.82052778     12.49203474     -3.00265459
  H       10.53803217     10.87983482     -3.15777957
  C        7.18881514     11.71761608     -2.64998165
  H        6.84249569     11.70121858     -3.69168524
  H        7.38401806     12.76221734     -2.38200066
  H        6.36568378     11.36496527     -2.02019233



