%Mem=256MB 
%NProc=12 

#P HF/6-31G* SCF(Conver=6) NoSymm Test 
   Pop=mk IOp(6/33=2) GFInput GFPrint 

MEP - Input generated by R.E.D.-III.x MOLECULE 

0 1 
  C        7.51242346      2.21425660      0.06882850
  H        7.34674534      2.18467123      1.15276284
  C        6.82045362      1.00530809     -0.57593217
  H        7.20031652      0.07964268     -0.13296695
  H        7.10612208      0.98623848     -1.64040477
  C        5.30887796      1.06127845     -0.45714055
  C        4.61963747      2.35725005     -0.89542458
  C        5.40535357      3.56397882     -0.29393043
  H        5.20022026      3.60439007      0.78493289
  H        5.02215014      4.49820334     -0.71794496
  C        6.92809469      3.51030182     -0.49232140
  H        7.17982331      3.58337044     -1.56072849
  H        7.39968255      4.36839181      0.00000000
  C        4.63144955     -0.00000000      0.00000000
  H        5.17085663     -0.89325748      0.30698757
  C        3.13779379     -0.10184982      0.09725523
  H        2.83322349     -0.20720360      1.15017381
  C        2.37641561      1.06192703     -0.55842256
  H        2.32120194      0.84026550     -1.63236377
  C        3.15372639      2.39115060     -0.34243267
  H        3.25291621      2.50505628      0.74941394
  C        2.33731153      3.60362597     -0.84576361
  H        2.29816050      3.59334778     -1.94036164
  H        2.85258106      4.53036860     -0.57114814
  C        0.89814360      3.66814355     -0.29906224
  H        0.92776946      3.83343607      0.78768187
  H        0.40071784      4.54146322     -0.73276789
  C        0.11685511      2.36945744     -0.58009311
  C        0.95620506      1.20426325      0.01972903
  H        1.09668771      1.47194219      1.08105299
  C        0.00000000      0.00000000      0.00000000
  H        0.26638390     -0.75123370      0.75007218
  H        0.03101905     -0.50528682     -0.97045515
  C       -1.39495830      0.62877172      0.26752703
  H       -2.11576644      0.30429478     -0.49219003
  H       -1.80257318      0.31027531      1.23214864
  C       -1.21831303      2.18137426      0.22064587
  H       -1.00308528      2.53036272      1.24153035
  C       -0.13311075      2.19914231     -2.09581171
  H        0.79636237      2.12814135     -2.66626955
  H       -0.71540854      1.29978496     -2.31724203
  H       -0.68973870      3.05458920     -2.49271771
  C       -2.50125435      2.90866698     -0.25326145
  H       -2.72467717      2.54873644     -1.26821145
  C       -2.35558011      4.44001747     -0.33572201
  H       -1.96198118      4.86679526      0.59343277
  H       -3.32880666      4.90663488     -0.52876675
  H       -1.68590806      4.74346600     -1.14436912
  C        4.65195397      2.43454914     -2.44536444
  H        4.31213610      3.41127621     -2.80376570
  H        5.66321795      2.28387318     -2.83198336
  H        4.01929763      1.66275508     -2.89376544
  O        2.68004556     -1.28805810     -0.59998048
  O        3.15202004     -2.45213830      0.14320789
  H        2.30488196     -2.81894702      0.44546168
  O        8.93469453      2.15015260     -0.06899747
  H        9.15534430      2.16560820     -1.01094183
  C       -3.74069656      2.52731365      0.60219344
  H       -4.61585340      3.01633276      0.14997439
  H       -3.92144579      1.45054830      0.50931090
  C       -3.68751163      2.91093245      2.09092582
  H       -2.89008206      2.35205295      2.59635075
  H       -3.41600470      3.96978006      2.18521831
  C       -5.01910948      2.70507818      2.83832653
  H       -5.78957720      3.31792309      2.34835004
  H       -4.91592271      3.10694023      3.85730048
  C       -5.54457356      1.25755447      2.94545195
  H       -5.65179402      0.85233671      1.92912613
  C       -4.58420839      0.34128031      3.72030592
  H       -4.42937213      0.71426569      4.74119561
  H       -4.98791991     -0.67479179      3.79610244
  H       -3.60312029      0.27001670      3.23973229
  C       -6.93824861      1.24673791      3.59393331
  H       -6.89647051      1.64132898      4.61739107
  H       -7.34535078      0.23050462      3.64649787
  H       -7.64671343      1.86316555      3.02874468



