%Mem=256MB 
%NProc=12 

#P HF/6-31G* SCF(Conver=6) NoSymm Test 
   Pop=mk IOp(6/33=2) GFInput GFPrint 

MEP - Input generated by R.E.D.-III.x MOLECULE 

0 1 
  C        1.75851378     -1.24879147     -0.06334386
  H        1.87194396     -1.13259768     -1.14813542
  C        3.15055774     -1.30655830      0.58166917
  H        3.72757496     -2.12791458      0.14515898
  H        3.01246771     -1.54857645      1.64803332
  C        3.91368708     -0.00185098      0.45498129
  C        3.19008233      1.28218994      0.87583822
  C        1.74813092      1.25534107      0.27908227
  H        1.81917454      1.44209227     -0.80148749
  H        1.16580908      2.08217948      0.69858346
  C        0.97843378     -0.05744695      0.49033013
  H        0.78500547     -0.22235187      1.56073520
  H        0.00000000      0.00000000      0.00000000
  C        5.17387555      0.00000000      0.00000000
  H        5.63384370     -0.93804650     -0.31269360
  C        6.05719429      1.20708470     -0.11658454
  H        6.28134900      1.39507052     -1.17930666
  C        5.48317806      2.47900173      0.52575380
  H        5.69339610      2.41055436      1.59845534
  C        3.94529024      2.53112480      0.29996698
  H        3.79862059      2.48498212     -0.79205131
  C        3.34577299      3.87760664      0.76917608
  H        3.36349407      3.93022188      1.86308342
  H        2.29031108      3.92945350      0.48052375
  C        4.06694831      5.11558157      0.20186621
  H        3.92373943      5.15331731     -0.88762692
  H        3.59465040      6.01633788      0.61023294
  C        5.57590727      5.08665814      0.50697546
  C        6.13166771      3.74584126     -0.05939140
  H        5.85679249      3.74999138     -1.12862989
  C        7.66147069      3.91964385      0.00000000
  H        8.18139960      3.27803486     -0.71601444
  H        8.04279913      3.64456329      0.98862857
  C        7.87402670      5.43258904     -0.28952787
  H        8.51032648      5.88648849      0.47696566
  H        8.38316155      5.59847846     -1.24554293
  C        6.45817670      6.08814368     -0.31339070
  H        6.08953633      5.99002038     -1.34606914
  C        5.81430102      5.21192778      2.02976778
  H        5.44915509      4.33904492      2.57683780
  H        6.87344423      5.32262216      2.27494780
  H        5.28962229      6.08435998      2.43021729
  C        6.48129715      7.62588405     -0.06982898
  H        7.20185122      7.98891016     -0.82138326
  C        7.01231654      8.10805416      1.29537060
  H        6.26321326      8.00499077      2.08632196
  H        7.28720978      9.16633073      1.24428456
  H        7.90644442      7.56238729      1.60999265
  C        3.11394987      1.31784408      2.42553526
  H        2.48072675      2.13969065      2.77363509
  H        2.69026263      0.39315058      2.82692923
  H        4.10777396      1.43596634      2.86693290
  O        7.39492989      0.89936424      0.35104686
  O        7.35200509      0.64133104      1.78574206
  H        7.40372188     -0.32840086      1.80084839
  O        1.05413562     -2.48453267      0.08413540
  H        0.89113208     -2.63803642      1.02544634
  C        5.13187532      8.29824180     -0.41095960
  H        4.72409792      7.83394990     -1.31973789
  H        4.40622981      8.09289154      0.38797854
  C        5.20467340      9.81755340     -0.63588439
  H        5.54479978     10.31220805      0.28143830
  H        5.96516215     10.02523335     -1.40105716
  C        3.85276708     10.40806459     -1.06807672
  H        3.10157358     10.16071349     -0.30383467
  H        3.52606844      9.90106870     -1.98764642
  C        3.80879206     11.93437509     -1.31383696
  H        2.77549759     12.16095328     -1.61605308
  C        4.09472808     12.74877394     -0.04114368
  H        5.13131022     12.62622146      0.29340910
  H        3.93356804     13.81828000     -0.21841854
  H        3.43895393     12.44452606      0.78320166
  C        4.72341622     12.37523722     -2.46868790
  H        5.78235963     12.24065453     -2.21981799
  H        4.57491470     13.43614563     -2.70034350
  H        4.51880360     11.80250345     -3.38097205



