%Mem=256MB 
%NProc=12 

#P HF/6-31G* SCF(Conver=6) NoSymm Test 
   Pop=mk IOp(6/33=2) GFInput GFPrint 

MEP - Input generated by R.E.D.-III.x MOLECULE 

0 1 
  C       -1.00264430      1.97858911      1.69239463
  H       -0.98927817      0.99810216      2.18393844
  C        0.32742547      2.69433174      1.96756554
  H        0.48310836      2.78540699      3.04719358
  H        0.24021552      3.71973059      1.57285327
  C        1.51368345      2.00472380      1.32115539
  C        1.40050912      1.65200587     -0.16610457
  C       -0.00193135      1.01586578     -0.41906022
  H        0.00000000      0.00000000      0.00000000
  H       -0.16181605      0.90590845     -1.49664471
  C       -1.18618444      1.78356232      0.18818240
  H       -1.29280488      2.76849978     -0.29034637
  H       -2.11943720      1.24071748      0.00000000
  C        2.61147387      1.73612126      2.04079347
  H        2.63161062      1.98267737      3.10291095
  C        3.87262260      1.11945708      1.51123847
  H        4.02642386      0.13685019      1.98632801
  C        3.91499228      0.96930711     -0.01714412
  H        4.21512965      1.94237376     -0.42093677
  C        2.50121656      0.60093803     -0.54687455
  H        2.21427326     -0.32689559     -0.02450316
  C        2.53344273      0.26740659     -2.05573088
  H        2.70099483      1.18287816     -2.63350948
  H        1.55507968     -0.11300531     -2.36920794
  C        3.60479893     -0.76831364     -2.44905696
  H        3.36007268     -1.73812089     -1.99196737
  H        3.56007737     -0.91637702     -3.53242177
  C        5.01318280     -0.34596152     -1.98521342
  C        4.92374509     -0.10973029     -0.44908102
  H        4.53999104     -1.05952549     -0.03622032
  C        6.38954758     -0.00000000     -0.00000000
  H        6.52111025     -0.23040579      1.06030816
  H        6.76082629      1.02060096     -0.13806244
  C        7.13108073     -1.00420747     -0.92263366
  H        8.01077686     -0.53543596     -1.37978093
  H        7.50114066     -1.86430100     -0.35631155
  C        6.11922749     -1.45783029     -2.02888100
  H        5.63175496     -2.38437926     -1.68500234
  C        5.48698380      0.91316813     -2.74704402
  H        4.84193594      1.77683965     -2.56700511
  H        6.50147119      1.20576569     -2.46134926
  H        5.49097142      0.73231105     -3.82701871
  C        6.81888465     -1.79568150     -3.37203323
  H        7.36186961     -0.89641706     -3.69512116
  C        5.83917998     -2.18684462     -4.49153618
  H        5.21469546     -3.03704705     -4.18876499
  H        6.37267778     -2.47762283     -5.40156981
  H        5.17406318     -1.36449559     -4.76360854
  C        1.53893365      2.95839910     -0.99245581
  H        1.32264944      2.78402114     -2.05096663
  H        0.84379147      3.72746681     -0.64461660
  H        2.54759926      3.37318741     -0.90895873
  O        5.03157650      1.81485956      2.03720469
  O        5.05913449      3.17074495      1.50107379
  H        4.73209673      3.67731182      2.26246546
  O       -2.10549179      2.65820755      2.29803903
  H       -2.19700504      3.52900344      1.88628967
  C        7.85871179     -2.92401275     -3.14847693
  H        8.51859193     -2.64499591     -2.31892443
  H        7.31863790     -3.82383515     -2.81744900
  C        8.75179474     -3.30376288     -4.34682015
  H        9.37860226     -4.14683616     -4.02973767
  H        8.13765364     -3.68416898     -5.17143976
  C        9.65082450     -2.16025940     -4.84533881
  H       10.19553406     -1.74237152     -3.98584720
  H        9.02310675     -1.34536021     -5.23004705
  C       10.68084459     -2.52538737     -5.94081605
  H       11.21019736     -1.59095805     -6.17938968
  C       11.73932266     -3.52880772     -5.45331685
  H       11.30341314     -4.51434656     -5.25327279
  H       12.52161438     -3.66626179     -6.20858219
  H       12.22219429     -3.18300662     -4.53174824
  C       10.01614903     -3.01157849     -7.23957981
  H        9.51544666     -3.97665711     -7.10024674
  H       10.76034683     -3.14138606     -8.03366011
  H        9.26781774     -2.29468801     -7.59772819



