%Mem=256MB 
%NProc=12 

#P HF/6-31G* SCF(Conver=6) NoSymm Test 
   Pop=mk IOp(6/33=2) GFInput GFPrint 

MEP - Input generated by R.E.D.-III.x MOLECULE 

0 1 
  C        7.52148690      2.21447950      0.06269474
  H        7.35991448      2.18191858      1.14716767
  C        6.82723299      1.00732578     -0.58285500
  H        7.20905951      0.08042322     -0.14419314
  H        7.10854563      0.99146918     -1.64854561
  C        5.31619196      1.06258835     -0.45751491
  C        4.62470782      2.35957636     -0.88945473
  C        5.41297847      3.56506841     -0.28842678
  H        5.21193092      3.60340926      0.79128721
  H        5.02857507      4.50021035     -0.70924508
  C        6.93488927      3.51188536     -0.49273877
  H        7.18247940      3.58785442     -1.56186667
  H        7.40828844      4.36874383      0.00000000
  C        4.64107126     -0.00000000      0.00000000
  H        5.18213392     -0.89376486      0.30254495
  C        3.14791444     -0.10251823      0.10371450
  H        2.84787556     -0.20952871      1.15775936
  C        2.38367008      1.06180238     -0.54776666
  H        2.32877976      0.84163496     -1.62175816
  C        3.16098379      2.39178796     -0.33016639
  H        3.26474654      2.50159069      0.76170671
  C        2.34417215      3.60875359     -0.82451714
  H        2.29521374      3.60224863     -1.91863598
  H        2.86466331      4.53267306     -0.55053699
  C        0.91064062      3.67251077     -0.26336584
  H        0.95358159      3.83334197      0.82311992
  H        0.40435668      4.54601538     -0.69052108
  C        0.12661425      2.37781286     -0.54781708
  C        0.96499343      1.20047641      0.03496348
  H        1.11197961      1.45162944      1.09900675
  C        0.00000000      0.00000000      0.00000000
  H        0.26405437     -0.76228802      0.73955875
  H        0.02878076     -0.49166021     -0.97754930
  C       -1.39357298      0.63184362      0.27672565
  H       -2.11338133      0.32799782     -0.48994013
  H       -1.81032995      0.30219939      1.23492826
  C       -1.18880757      2.17935556      0.28240054
  H       -0.90003107      2.43938200      1.30982715
  C       -0.10519227      2.21916970     -2.06843942
  H        0.82908501      2.05337253     -2.61073877
  H       -0.76450185      1.37939273     -2.30178524
  H       -0.56069271      3.12183240     -2.48540399
  C       -2.50765484      2.96672839      0.03086237
  H       -3.20808196      2.53249722      0.76336234
  C       -3.17348229      2.78225530     -1.34803923
  H       -2.67863096      3.37162991     -2.12543451
  H       -4.21479028      3.12057072     -1.30073177
  H       -3.18619820      1.73930957     -1.67730379
  C        4.64967937      2.44114651     -2.43931288
  H        4.30511246      3.41784188     -2.79327016
  H        5.65954526      2.29454479     -2.83112424
  H        4.01713314      1.66876518     -2.88682790
  O        2.68763394     -1.28792094     -0.59316109
  O        3.16382743     -2.45270386      0.14630074
  H        2.31813136     -2.82169168      0.44991234
  O        8.94323951      2.15098627     -0.08072275
  H        9.16019662      2.16849571     -1.02348949
  C       -2.43683193      4.47865506      0.35822825
  H       -1.70454589      4.96750518     -0.29830365
  H       -3.40898784      4.91119988      0.08816519
  C       -2.13089194      4.83581294      1.82098862
  H       -2.86569643      4.34427406      2.47331075
  H       -1.15607831      4.42467541      2.10811253
  C       -2.09775602      6.34837770      2.11227846
  H       -1.32299449      6.80754550      1.48121511
  H       -1.76728288      6.49621524      3.15114766
  C       -3.41351726      7.13113669      1.91378179
  H       -3.73580924      7.00886143      0.86990984
  C       -4.54423213      6.61809419      2.81951012
  H       -4.26134477      6.69582286      3.87745690
  H       -5.45746396      7.20679800      2.67639282
  H       -4.79315377      5.57120231      2.61771803
  C       -3.17551473      8.63188560      2.14680435
  H       -2.85632431      8.82170743      3.17973924
  H       -4.08837481      9.21194872      1.96972784
  H       -2.39637545      9.02108816      1.48127284



