%Mem=256MB 
%NProc=12 

#P HF/6-31G* SCF(Conver=6) NoSymm Test 
   Pop=mk IOp(6/33=2) GFInput GFPrint 

MEP - Input generated by R.E.D.-III.x MOLECULE 

0 1 
  C        7.53010840      2.21280232      0.05774450
  H        7.37625618      2.17679138      1.14318300
  C        6.82908968      1.00861606     -0.58701612
  H        7.21460468      0.07990869     -0.15459952
  H        7.10259322      0.99803122     -1.65468174
  C        5.31921272      1.06410933     -0.45384658
  C        4.62195706      2.36490907     -0.86772579
  C        5.42089620      3.56573401     -0.27141283
  H        5.23032051      3.60289089      0.81020391
  H        5.03353013      4.50191190     -0.68649298
  C        6.94067020      3.51158645     -0.49005795
  H        7.17839622      3.58883141     -1.56146907
  H        7.41943422      4.36696232      0.00000000
  C        4.64332738     -0.00000000      0.00000000
  H        5.18936015     -0.89237414      0.30789846
  C        3.15112405     -0.09912702      0.12000656
  H        2.87486955     -0.19240353      1.18300232
  C        2.38373550      1.07023843     -0.51538414
  H        2.32691703      0.86080916     -1.58882006
  C        3.16536857      2.39493915     -0.28487164
  H        3.28802517      2.48745357      0.80718096
  C        2.34930341      3.62671031     -0.74252545
  H        2.29187113      3.64916294     -1.83603652
  H        2.87269177      4.54281191     -0.44793937
  C        0.92007236      3.67712620     -0.16866531
  H        0.97264934      3.80762165      0.92141190
  H        0.41185694      4.56329418     -0.56688765
  C        0.13289962      2.39162795     -0.48221171
  C        0.96718400      1.19779058      0.07222708
  H        1.11211603      1.42103074      1.14360520
  C        0.00000000      0.00000000      0.00000000
  H        0.26068802     -0.78788739      0.71121719
  H        0.03196551     -0.46197050     -0.99197546
  C       -1.39259661      0.62863947      0.28850276
  H       -2.11108317      0.35079929     -0.48955611
  H       -1.81462842      0.27181380      1.23470421
  C       -1.18459934      2.17493982      0.34046121
  H       -0.89621645      2.40546031      1.37557844
  C       -0.09782239      2.26829967     -2.00670864
  H        0.83449470      2.09696925     -2.55050234
  H       -0.76939839      1.44392264     -2.25796708
  H       -0.53774649      3.18651458     -2.40640227
  C       -2.50129964      2.97151161      0.11022484
  H       -3.20914705      2.50209447      0.81080158
  C       -3.15582819      2.84778575     -1.28068933
  H       -2.65006512      3.46340442     -2.03034823
  H       -4.19523322      3.19171491     -1.22913312
  H       -3.17278872      1.81826440     -1.64963964
  C        4.62482047      2.45285315     -2.41720939
  H        4.26783787      3.42867949     -2.76060313
  H        5.63055212      2.31682613     -2.82413647
  H        3.99090471      1.67797266     -2.85772917
  O        2.69296766     -1.39128918     -0.35241400
  O        2.93099095     -1.48705230     -1.78795775
  H        3.72251890     -2.04955378     -1.80715327
  O        8.95013333      2.14467142     -0.09644676
  H        9.16290096      2.20264391     -1.03855768
  C       -2.42771990      4.46938337      0.49542623
  H       -1.72220649      4.97905541     -0.17305859
  H       -3.40745341      4.91350918      0.27274280
  C       -2.05422861      4.81002152      1.95148264
  H       -1.02951704      4.47970447      2.15928118
  H       -2.02936963      5.90333204      2.04566832
  C       -2.97397460      4.22537114      3.04079135
  H       -2.58148501      4.53120006      4.02202293
  H       -2.90572703      3.12927399      3.02319440
  C       -4.46446211      4.62040265      2.97419135
  H       -4.86260293      4.30129817      2.00007991
  C       -5.25926769      3.87816646      4.06066277
  H       -4.91046262      4.16112411      5.06221742
  H       -6.32823518      4.11308143      4.00289688
  H       -5.14893751      2.79183485      3.96503743
  C       -4.67590485      6.13810479      3.09404730
  H       -4.27256896      6.51309827      4.04379977
  H       -5.74260772      6.38794932      3.06529840
  H       -4.18713675      6.68899686      2.28401394



