%Mem=256MB 
%NProc=12 

#P HF/6-31G* SCF(Conver=6) NoSymm Test 
   Pop=mk IOp(6/33=2) GFInput GFPrint 

MEP - Input generated by R.E.D.-III.x MOLECULE 

0 1 
  C        0.99915590     -0.90977277     -1.68275587
  H        1.15853039      0.05429384     -2.18117937
  C        2.20860482     -1.81653378     -1.94892083
  H        2.35275443     -1.93726651     -3.02689439
  H        1.97057293     -2.81562251     -1.54853459
  C        3.48216294     -1.30186602     -1.30460545
  C        3.41657543     -0.93270906      0.18080644
  C        2.12607531     -0.09042119      0.42677916
  H        2.28187148      0.91020931      0.00000000
  H        1.98063063      0.05029133      1.50307078
  C        0.84246214     -0.67737498     -0.18033896
  H        0.58830411     -1.63141890      0.30486999
  H        0.00000000      0.00000000      0.00000000
  C        4.60650842     -1.20183898     -2.02580514
  H        4.59682374     -1.46911418     -3.08013203
  C        5.94503692     -0.77975403     -1.49573248
  H        6.26608558      0.15527817     -1.98058638
  C        6.00666563     -0.62991059      0.03331671
  H        6.16702654     -1.63528457      0.44451579
  C        4.66109233     -0.06142601      0.56481443
  H        4.51787312      0.90127746      0.04752904
  C        4.74811571      0.25173564      2.07576006
  H        4.78916862     -0.68338948      2.64481800
  H        3.83300534      0.76061170      2.39725604
  C        5.95325886      1.12632607      2.47188545
  H        5.84266739      2.12438492      2.02369518
  H        5.93418312      1.26992341      3.55655763
  C        7.28904645      0.51839650      1.99812152
  C        7.15677883      0.30007141      0.46247744
  H        6.90018908      1.29290286      0.05450908
  C        8.59098789      0.00000000      0.00000000
  H        8.74092234      0.22687059     -1.06012817
  H        8.82592798     -1.06151777      0.12707213
  C        9.46859871      0.89082348      0.91973056
  H       10.27850749      0.30372505      1.36887914
  H        9.94872338      1.69484668      0.35386585
  C        8.53434203      1.47232845      2.03410404
  H        8.17217900      2.45577529      1.69396453
  C        7.59416066     -0.79409184      2.75575255
  H        6.83261357     -1.55959503      2.58677484
  H        8.55471038     -1.22503812      2.45808586
  H        7.63753071     -0.61544648      3.83511544
  C        9.28322570      1.71317235      3.37170283
  H        9.70136223      0.74881352      3.69403075
  C        8.37169486      2.23358462      4.49619901
  H        7.86916070      3.16233984      4.19750067
  H        8.94348412      2.44548792      5.40451445
  H        7.60061054      1.51021508      4.76944684
  C        3.35094322     -2.24148218      1.01269511
  H        3.15048132     -2.03397383      2.06850298
  H        2.55494839     -2.90119015      0.65755200
  H        4.28729086     -2.80293198      0.94262283
  O        6.93866126     -1.78739217     -1.81264076
  O        7.12782692     -1.78734244     -3.25989020
  H        8.04624403     -1.47569101     -3.31373558
  O       -0.19307217     -1.42149684     -2.28502172
  H       -0.39227583     -2.28347528     -1.89324158
  C       10.46577969      2.68851337      3.13859006
  H       11.07867968      2.31758675      2.31040272
  H       10.05362540      3.64995829      2.79719704
  C       11.38988525      2.96462322      4.34174309
  H       12.15148393      3.68622446      4.01964420
  H       10.82872461      3.47526457      5.13380791
  C       12.08154659      1.73497066      4.96051887
  H       11.31942685      1.06161783      5.37584867
  H       12.67947439      2.07276851      5.81996869
  C       12.99920707      0.91497643      4.02891845
  H       12.40058611      0.56592079      3.17511381
  C       14.16769194      1.74572055      3.47479427
  H       14.78621348      2.14017891      4.29153998
  H       14.81399778      1.13378321      2.83534019
  H       13.82388940      2.59602538      2.87703668
  C       13.52369965     -0.33011514      4.76220211
  H       14.13712522     -0.04507823      5.62661451
  H       14.14482127     -0.94830375      4.10398850
  H       12.70086162     -0.95388969      5.13013174



