%Mem=256MB 
%NProc=12 

#P HF/6-31G* SCF(Conver=6) NoSymm Test 
   Pop=mk IOp(6/33=2) GFInput GFPrint 

MEP - Input generated by R.E.D.-III.x MOLECULE 

0 1 
  C        0.99868027     -0.89852751     -1.68858814
  H        1.15527128      0.06785997     -2.18327494
  C        2.21053931     -1.80138506     -1.95964962
  H        2.35183170     -1.91828566     -3.03876539
  H        1.97482326     -2.80157470     -1.56106795
  C        3.48395206     -1.28868980     -1.31459091
  C        3.42244962     -0.91933880      0.17173627
  C        2.12719447     -0.08516062      0.42143646
  H        2.27741319      0.91853414      0.00000000
  H        1.98392540      0.04956712      1.49853455
  C        0.84423403     -0.67379307     -0.18524935
  H        0.59464150     -1.63110970      0.29607789
  H        0.00000000      0.00000000      0.00000000
  C        4.60870809     -1.18263254     -2.03486920
  H        4.59283642     -1.43215737     -3.09636949
  C        5.94511946     -0.75091730     -1.50703836
  H        6.23602380      0.19987599     -1.98274711
  C        6.00975733     -0.60759061      0.02110652
  H        6.16714262     -1.61342702      0.42555691
  C        4.66403108     -0.03847920      0.55145524
  H        4.51417385      0.92062908      0.02826770
  C        4.74392730      0.28829625      2.06034701
  H        4.77644053     -0.64123910      2.63897991
  H        3.83079845      0.80664475      2.37280119
  C        5.95382790      1.15832726      2.45339873
  H        5.85050156      2.15384054      1.99769329
  H        5.93454966      1.30942322      3.53745707
  C        7.28506920      0.53728075      1.98722031
  C        7.16307068      0.31598396      0.45149635
  H        6.91735452      1.31065333      0.03919987
  C        8.59914298     -0.00000000      0.00000000
  H        8.76288226      0.22453711     -1.05714425
  H        8.81769416     -1.06572073      0.12196817
  C        9.48041739      0.87013662      0.93743226
  H       10.26138785      0.26105894      1.40787841
  H        9.99984400      1.65952742      0.38447533
  C        8.53787649      1.47935788      2.02600307
  H        8.18454445      2.45602160      1.66304073
  C        7.57256215     -0.77467705      2.75217879
  H        6.80702562     -1.53499344      2.57832932
  H        8.53188233     -1.21446525      2.46447185
  H        7.60664323     -0.59148630      3.83146412
  C        9.26667774      1.72475014      3.37076908
  H        9.62782594      0.74966073      3.72903276
  C        8.36302211      2.30935958      4.47284813
  H        7.82410519      3.20016630      4.13115105
  H        8.96155805      2.59840433      5.34497188
  H        7.61814730      1.58734859      4.81704280
  C        3.36829987     -2.22974822      1.00148958
  H        3.17819196     -2.02302710      2.05918098
  H        2.56921949     -2.89049156      0.65429498
  H        4.30604201     -2.78694719      0.92081262
  O        6.99341128     -1.60349586     -2.03370622
  O        6.83050861     -2.94907928     -1.49582099
  H        6.43034286     -3.40457292     -2.25457207
  O       -0.19094289     -1.41216158     -2.29348974
  H       -0.40910816     -2.25866754     -1.87872408
  C       10.53843841      2.59788636      3.19659198
  H       11.04596640      2.64145228      4.17101660
  H       11.23782296      2.09089660      2.52024189
  C       10.32442976      4.03598272      2.69510402
  H        9.84745607      4.01499149      1.70761526
  H        9.63075438      4.56031191      3.36343178
  C       11.64693015      4.81592224      2.61049249
  H       12.33670505      4.26727920      1.95276989
  H       12.11660540      4.81865089      3.60487428
  C       11.55995715      6.27708127      2.11122722
  H       12.59099500      6.66071641      2.12175485
  C       11.05600061      6.37990219      0.66203036
  H       10.00690463      6.07411998      0.57579168
  H       11.12610918      7.41103363      0.29712241
  H       11.64549658      5.74663692     -0.01143598
  C       10.73510653      7.17559180      3.04771824
  H        9.67508993      6.89650621      3.04587541
  H       10.79690401      8.22458402      2.73610661
  H       11.09570037      7.11248017      4.08121442



