%Mem=256MB 
%NProc=12 

#P HF/6-31G* SCF(Conver=6) NoSymm Test 
   Pop=mk IOp(6/33=2) GFInput GFPrint 

MEP - Input generated by R.E.D.-III.x MOLECULE 

0 1 
  C        0.99681692     -0.90647296     -1.68592408
  H        1.15368498      0.05860376     -2.18317723
  C        2.20743461     -1.81062056     -1.95593897
  H        2.34964529     -1.92920009     -3.03439703
  H        1.97230234     -2.81080083     -1.55665599
  C        3.48100231     -1.29386407     -1.31328940
  C        3.41743055     -0.93117951      0.17377422
  C        2.12653241     -0.09062227      0.42400128
  H        2.28098820      0.91140344      0.00000000
  H        1.98225425      0.04679661      1.50085069
  C        0.84239753     -0.67679388     -0.18281993
  H        0.58905041     -1.63177221      0.30097373
  H        0.00000000      0.00000000      0.00000000
  C        4.60241234     -1.18529708     -2.03779381
  H        4.59038595     -1.44759585     -3.09333465
  C        5.94054314     -0.75934829     -1.51002060
  H        6.25339224      0.18257335     -1.98685806
  C        6.00729754     -0.62485074      0.02018166
  H        6.16730756     -1.63499832      0.41892357
  C        4.66198837     -0.06098608      0.56105042
  H        4.51651345      0.90496643      0.05034697
  C        4.74800709      0.24436253      2.07504039
  H        4.79562253     -0.69268053      2.63998880
  H        3.82988522      0.74635315      2.39862910
  C        5.94948650      1.12439893      2.47003522
  H        5.82927328      2.12196311      2.02459750
  H        5.94225080      1.26273005      3.55755643
  C        7.28286814      0.51983436      1.99211881
  C        7.15817399      0.30169213      0.45412486
  H        6.90275297      1.29309050      0.04329951
  C        8.59901123      0.00000000     -0.00000000
  H        8.75788087      0.24374772     -1.05508526
  H        8.82491860     -1.06529667      0.11065267
  C        9.47829969      0.86782784      0.94411966
  H       10.25351185      0.25722066      1.41789250
  H       10.00374559      1.66112260      0.40089215
  C        8.51633422      1.48807336      2.00557050
  H        8.13506551      2.41665661      1.55903402
  C        7.56508513     -0.80468320      2.73870026
  H        6.84679191     -1.58542370      2.47606302
  H        8.56075584     -1.19910534      2.52087204
  H        7.49749723     -0.65931849      3.82059234
  C        9.25363816      1.94556860      3.29768402
  H       10.07647800      2.57121674      2.91412340
  C        9.92281780      0.84325443      4.14366968
  H        9.19847146      0.29804759      4.75569090
  H       10.64778861      1.29650583      4.82919161
  H       10.46398575      0.11214987      3.53628951
  C        3.35334569     -2.24325448      1.00052670
  H        3.15531845     -2.03973636      2.05753481
  H        2.55641979     -2.90133879      0.64453272
  H        4.28950896     -2.80453090      0.92622984
  O        6.93931042     -1.75716676     -1.84108354
  O        7.12148208     -1.74212080     -3.28912204
  H        8.03732873     -1.42319162     -3.34430399
  O       -0.19572251     -1.41919328     -2.28672322
  H       -0.39297084     -2.28196038     -1.89567731
  C        8.42481538      2.86230482      4.22905149
  H        7.55586788      2.31255278      4.61427857
  H        9.04648038      3.08326720      5.10852884
  C        7.96245824      4.19918725      3.62959348
  H        8.83295061      4.72348871      3.20726228
  H        7.27670946      4.01949741      2.79461443
  C        7.28389804      5.10799355      4.66590300
  H        7.96408512      5.23101838      5.52086148
  H        6.38835729      4.60438264      5.06147751
  C        6.88286067      6.50818609      4.15846677
  H        7.78281258      6.97607678      3.72996534
  C        5.81083270      6.45380060      3.05787443
  H        4.89786693      5.96988548      3.42898306
  H        5.53929733      7.46236463      2.72592151
  H        6.14974247      5.89828502      2.17769342
  C        6.40899129      7.38879203      5.32568639
  H        5.51112607      6.96596071      5.79456999
  H        6.16000320      8.40047479      4.98566539
  H        7.17954393      7.47490293      6.10034180



