%Mem=256MB 
%NProc=12 

#P HF/6-31G* SCF(Conver=6) NoSymm Test 
   Pop=mk IOp(6/33=2) GFInput GFPrint 

MEP - Input generated by R.E.D.-III.x MOLECULE 

0 1 
  C       -1.01096521      1.98342267      1.68384729
  H       -0.99218873      1.00621416      2.18179872
  C        0.31613625      2.70667308      1.95171638
  H        0.47529155      2.80425549      3.02992076
  H        0.22463544      3.73003060      1.55234790
  C        1.50280470      2.01482352      1.30743069
  C        1.38592258      1.66237653     -0.17877061
  C       -0.01135678      1.01295901     -0.42598945
  H        0.00000000      0.00000000      0.00000000
  H       -0.17477142      0.89514213     -1.50247261
  C       -1.19834667      1.77666978      0.18113745
  H       -1.31348957      2.75750760     -0.30354193
  H       -2.12880560      1.22663337      0.00000000
  C        2.59970476      1.75108481      2.02957147
  H        2.62733473      2.01421355      3.08462081
  C        3.86396045      1.14163348      1.49946500
  H        4.04526446      0.16770236      1.98014170
  C        3.90591862      0.99171624     -0.03018537
  H        4.20851978      1.96596849     -0.43614597
  C        2.49371678      0.62359674     -0.56553997
  H        2.21357775     -0.31107685     -0.05287284
  C        2.53698319      0.30833443     -2.07804166
  H        2.71185778      1.23073937     -2.64239435
  H        1.55891734     -0.06310158     -2.40245626
  C        3.60567667     -0.72701541     -2.47794605
  H        3.35362761     -1.70126713     -2.03461070
  H        3.56819002     -0.86132300     -3.56331418
  C        5.01356009     -0.31747133     -2.00023461
  C        4.91232807     -0.09059042     -0.46359978
  H        4.51676094     -1.03884674     -0.06062280
  C        6.37442566     -0.00000000     -0.00000000
  H        6.48986269     -0.24888142      1.05948240
  H        6.75874529      1.01738816     -0.12404437
  C        7.11591210     -1.00481095     -0.92211211
  H        8.00545924     -0.54168378     -1.36571074
  H        7.47000679     -1.87285307     -0.35796309
  C        6.11057572     -1.43862872     -2.04223126
  H        5.61162219     -2.36348299     -1.71117188
  C        5.50325552      0.94285280     -2.74980307
  H        4.85876153      1.80814962     -2.57555655
  H        6.51535550      1.23018720     -2.44977841
  H        5.52152326      0.76690249     -3.83021494
  C        6.81930151     -1.77057922     -3.38169684
  H        7.37979857     -0.87628513     -3.69442455
  C        5.84297191     -2.13952041     -4.51273506
  H        5.19551289     -2.97389053     -4.21473780
  H        6.38028872     -2.44425593     -5.41559442
  H        5.19993772     -1.30271769     -4.79399021
  C        1.50764463      2.96888167     -1.00792733
  H        1.27767712      2.79458527     -2.06371657
  H        0.81544645      3.73545955     -0.65002036
  H        2.51526348      3.38945971     -0.93875932
  O        4.99233574      1.99335402      1.82258166
  O        5.17650448      1.95939046      3.27005540
  H        6.03964071      1.51708725      3.32375113
  O       -2.11779145      2.66081865      2.28557314
  H       -2.19062623      3.54277216      1.89438115
  C        7.85236540     -2.90610696     -3.17258112
  H        8.45336914     -2.69056893     -2.28191982
  H        7.31093606     -3.83966734     -2.95442661
  C        8.82204095     -3.14246298     -4.34254841
  H        8.26767640     -3.44378132     -5.23844598
  H        9.31627130     -2.19259630     -4.58812653
  C        9.87791256     -4.21033570     -4.01258833
  H        9.36095492     -5.14080572     -3.73621653
  H       10.42996475     -3.89373668     -3.11579842
  C       10.90353729     -4.53730774     -5.12304202
  H       11.56856191     -5.30552565     -4.70131648
  C       10.24974986     -5.14588741     -6.37483983
  H        9.61523058     -4.41867894     -6.89449336
  H       11.01133045     -5.48191068     -7.08777707
  H        9.62689867     -6.01123724     -6.11924534
  C       11.78376525     -3.33118478     -5.49044543
  H       11.20293138     -2.54031535     -5.97893845
  H       12.58007673     -3.62638433     -6.18323304
  H       12.25796771     -2.89773722     -4.60196772



