%Mem=256MB 
%NProc=12 

#P HF/6-31G* SCF(Conver=6) NoSymm Test 
   Pop=mk IOp(6/33=2) GFInput GFPrint 

MEP - Input generated by R.E.D.-III.x MOLECULE 

0 1 
  C        7.51711504      2.21619629      0.07050355
  H        7.35527373      2.18606448      1.15496106
  C        6.82171005      1.00805661     -0.57284905
  H        7.20455606      0.08195493     -0.13251604
  H        7.10328519      0.99181071     -1.63835253
  C        5.31077927      1.06302456     -0.45168837
  C        4.61557898      2.36142309     -0.87597409
  C        5.40964249      3.56588289     -0.28079363
  H        5.21193012      3.60876328      0.79933116
  H        5.02404666      4.49946536     -0.70338290
  C        6.93095037      3.51159584     -0.48871719
  H        7.17626167      3.58311481     -1.55884191
  H        7.40580930      4.36991883     -0.00000000
  C        4.63171631      0.00000000      0.00000000
  H        5.17569082     -0.89109396      0.31517016
  C        3.13852706     -0.10021387      0.10743531
  H        2.85408874     -0.19663082      1.16794454
  C        2.37426014      1.06987614     -0.53059210
  H        2.31626073      0.86002535     -1.60417879
  C        3.15598873      2.39333808     -0.30163620
  H        3.27242795      2.49130104      0.79057656
  C        2.33986189      3.61900146     -0.77133335
  H        2.29176280      3.63418618     -1.86561208
  H        2.85719595      4.53929664     -0.47876270
  C        0.90443375      3.67147777     -0.21274745
  H        0.94193957      3.80908999      0.87766720
  H        0.40806950      4.55772063     -0.61993071
  C        0.11830730      2.38129484     -0.52017302
  C        0.95664822      1.20175975      0.05375076
  H        1.09557186      1.44388962      1.12235051
  C        0.00000000      0.00000000      0.00000000
  H        0.27350642     -0.78511060      0.70953826
  H        0.01887243     -0.46515580     -0.99086293
  C       -1.38780036      0.62292983      0.30907200
  H       -2.13107900      0.30275727     -0.43094288
  H       -1.76251975      0.29320584      1.28287559
  C       -1.21989509      2.17983557      0.27362945
  H       -1.01804959      2.52388807      1.30088856
  C       -0.13187906      2.24021469     -2.03931222
  H        0.79734432      2.16667182     -2.60989492
  H       -0.72383658      1.35111297     -2.27490491
  H       -0.67877366      3.10793652     -2.42276448
  C       -2.50905075      2.90632296     -0.19329158
  H       -2.75724403      2.52497821     -1.19372713
  C       -2.34979758      4.43302650     -0.29294802
  H       -2.02568716      4.85833607      0.66546717
  H       -3.29493554      4.91340459     -0.56365855
  H       -1.61889909      4.72293503     -1.05084122
  C        4.62824529      2.44133496     -2.42585623
  H        4.27291145      3.41516083     -2.77661646
  H        5.63680473      2.30402146     -2.82539693
  H        3.99774684      1.66357819     -2.86630318
  O        2.68558010     -1.39183610     -0.37209600
  O        2.93510593     -1.48340772     -1.80596227
  H        3.72722643     -2.04520938     -1.82027943
  O        8.93830189      2.14806877     -0.07283366
  H        9.15793012      2.20128984     -1.01364642
  C       -3.68166817      2.54850563      0.75606846
  H       -3.74983370      1.45834625      0.84747691
  H       -3.43256012      2.92247332      1.76057480
  C       -5.08050093      3.07233614      0.37305110
  H       -5.76808678      2.77773532      1.17594434
  H       -5.08547513      4.16859878      0.36536542
  C       -5.60486673      2.53509214     -0.96888220
  H       -5.51384301      1.43883635     -0.96729241
  H       -4.95689577      2.89060243     -1.78118557
  C       -7.06459367      2.89963288     -1.33032035
  H       -7.25124817      2.45052515     -2.31710921
  C       -8.08930720      2.29030760     -0.35894576
  H       -8.01500817      2.73336568      0.64080457
  H       -9.11172156      2.46073545     -0.71520818
  H       -7.94751112      1.20794869     -0.25684215
  C       -7.27689650      4.41566399     -1.47717557
  H       -7.16882707      4.93346246     -0.51712398
  H       -8.28247400      4.63390441     -1.85457311
  H       -6.55557584      4.85389520     -2.17706974



