%Mem=256MB 
%NProc=12 

#P HF/6-31G* SCF(Conver=6) NoSymm Test 
   Pop=mk IOp(6/33=2) GFInput GFPrint 

MEP - Input generated by R.E.D.-III.x MOLECULE 

0 1 
  C       -1.01109538      1.98647282      1.68080228
  H       -0.98989904      1.01052321      2.18110407
  C        0.31497123      2.71278295      1.94525368
  H        0.47505315      2.81387100      3.02300164
  H        0.22125305      3.73475964      1.54292564
  C        1.50204994      2.02062776      1.30203842
  C        1.38445513      1.66331072     -0.18301453
  C       -0.01249738      1.01218945     -0.42780917
  H        0.00000000      0.00000000      0.00000000
  H       -0.17682903      0.89236939     -1.50391142
  C       -1.19977545      1.77579841      0.17884129
  H       -1.31679576      2.75528993     -0.30811834
  H       -2.12967321      1.22406348      0.00000000
  C        2.60007906      1.76104604      2.02399430
  H        2.62835517      2.02789771      3.07809394
  C        3.86425061      1.15047753      1.49501648
  H        4.04602574      0.17823209      1.97892919
  C        3.90539665      0.99498187     -0.03408912
  H        4.20770813      1.96770296     -0.44396774
  C        2.49271726      0.62384382     -0.56695275
  H        2.21399179     -0.30874189     -0.04971867
  C        2.53329436      0.30116807     -2.07828210
  H        2.70544727      1.22093106     -2.64771366
  H        1.55492007     -0.07307921     -2.39839529
  C        3.60261866     -0.73490636     -2.47529962
  H        3.35131935     -1.70791372     -2.02887822
  H        3.56684552     -0.87256239     -3.56065100
  C        5.00937600     -0.32172675     -1.99963284
  C        4.91108434     -0.08913452     -0.46393138
  H        4.51387054     -1.03528002     -0.05790897
  C        6.37450008     -0.00000000     -0.00000000
  H        6.48962741     -0.26301232      1.05618479
  H        6.75563766      1.02021728     -0.10951625
  C        7.12214008     -0.98810148     -0.93677829
  H        7.98811104     -0.49975846     -1.39896368
  H        7.51404538     -1.84914034     -0.38582886
  C        6.10549673     -1.44296297     -2.03370719
  H        5.60506314     -2.35493056     -1.67611161
  C        5.49566318      0.93396990     -2.75822370
  H        4.84825666      1.79843914     -2.59101755
  H        6.50680037      1.22719402     -2.46060856
  H        5.51343512      0.74892962     -3.83744215
  C        6.79784959     -1.79127729     -3.37497998
  H        7.30080938     -0.87932929     -3.72836601
  C        5.82296739     -2.23330424     -4.48265300
  H        5.16028224     -3.03883524     -4.14706338
  H        6.37657410     -2.60083829     -5.35480111
  H        5.19126467     -1.40983970     -4.82503706
  C        1.50496050      2.96739862     -1.01610000
  H        1.27725115      2.78928742     -2.07173046
  H        0.81054050      3.73366148     -0.66179291
  H        2.51150236      3.39039509     -0.94627544
  O        4.99278037      2.00335520      1.81428087
  O        5.17826576      1.97426495      3.26167802
  H        6.04093219      1.53110971      3.31609816
  O       -2.11844805      2.66335578      2.28211218
  H       -2.19352568      3.54407891      1.88856872
  C        7.92707137     -2.84372612     -3.20047977
  H        8.42993029     -2.94179737     -4.17147638
  H        8.68621836     -2.45281154     -2.51098052
  C        7.49357074     -4.23637062     -2.71266041
  H        6.95716962     -4.13904776     -1.76021779
  H        6.77519643     -4.67492293     -3.41587946
  C        8.66333043     -5.21380111     -2.48817523
  H        8.26860079     -6.13374162     -2.03170560
  H        9.34506401     -4.77603540     -1.74451990
  C        9.48938270     -5.61273306     -3.72981288
  H        9.89813267     -4.69789949     -4.18203094
  C       10.68057705     -6.49049512     -3.31311035
  H       10.33542550     -7.42665706     -2.85554138
  H       11.30303860     -6.75286170     -4.17618851
  H       11.31801154     -5.97878514     -2.58287556
  C        8.64095830     -6.32673375     -4.79405366
  H        8.19044786     -7.24011375     -4.38401741
  H        9.25534549     -6.61733833     -5.65381360
  H        7.82930280     -5.69471729     -5.16863737



