%Mem=256MB 
%NProc=12 

#P HF/6-31G* SCF(Conver=6) NoSymm Test 
   Pop=mk IOp(6/33=2) GFInput GFPrint 

MEP - Input generated by R.E.D.-III.x MOLECULE 

0 1 
  C        1.75874404     -1.24809134     -0.07163289
  H        1.87187181     -1.12531270     -1.15573069
  C        3.15093321     -1.30968036      0.57276183
  H        3.72781202     -2.12864459      0.13159455
  H        3.01285279     -1.55757251      1.63779328
  C        3.91420474     -0.00439883      0.45362373
  C        3.19056935      1.27737746      0.88114280
  C        1.74820359      1.25385486      0.28539365
  H        1.81832684      1.44683282     -0.79415244
  H        1.16628368      2.07834425      0.71013397
  C        0.97869413     -0.06020461      0.48946779
  H        0.78592038     -0.23150843      1.55901009
  H        0.00000000      0.00000000      0.00000000
  C        5.17489156      0.00000000      0.00000000
  H        5.63518382     -0.93622995     -0.31765063
  C        6.05887195      1.20743000     -0.10802893
  H        6.28771910      1.39892966     -1.16910804
  C        5.48278632      2.47762758      0.53592047
  H        5.69378091      2.41051237      1.60878298
  C        3.94569142      2.52862842      0.31036582
  H        3.79876996      2.48682955     -0.78175963
  C        3.34884137      3.87303545      0.78603348
  H        3.36269682      3.91739211      1.88045096
  H        2.29429492      3.93029048      0.49487935
  C        4.07298077      5.11529799      0.23131825
  H        3.93264423      5.16291389     -0.85837384
  H        3.59500830      6.00886346      0.64540423
  C        5.58381136      5.08387864      0.53401981
  C        6.12961113      3.74686506     -0.04632602
  H        5.84558720      3.76276805     -1.11347619
  C        7.65831311      3.91094623     -0.00000000
  H        8.16851354      3.27190467     -0.72532946
  H        8.04854453      3.62734181      0.98269502
  C        7.87569594      5.42296366     -0.28126424
  H        8.52542619      5.86782760      0.48172773
  H        8.37532407      5.58668747     -1.24161285
  C        6.46900367      6.10511211     -0.26099988
  H        6.07385381      6.10199996     -1.28779300
  C        5.83887846      5.21653431      2.05270022
  H        5.39921736      4.39425359      2.62270318
  H        6.90687775      5.23449887      2.28836725
  H        5.40296942      6.14505540      2.43663911
  C        6.53319833      7.58185021      0.20256010
  H        6.93679700      7.58560378      1.22563110
  C        5.16144980      8.28107121      0.25089119
  H        4.61227907      8.17150634     -0.69098567
  H        5.28550765      9.35416759      0.43921482
  H        4.52773062      7.88421965      1.04808450
  C        3.11554033      1.30523626      2.43104283
  H        2.48308444      2.12569758      2.78378709
  H        2.69141240      0.37878477      2.82785317
  H        4.10974638      1.42025639      2.87225082
  O        7.39440880      0.89713474      0.36445722
  O        7.34533218      0.63505514      1.79810931
  H        7.39139955     -0.33501211      1.81066309
  O        1.05451868     -2.48476427      0.06849518
  H        0.89058319     -2.64343814      1.00878596
  C        7.53476559      8.41687476     -0.63986303
  H        7.59364590      9.41749754     -0.18789715
  H        8.53944864      7.98729341     -0.54138125
  C        7.21271430      8.57695845     -2.13521155
  H        7.18102336      7.59027500     -2.61325972
  H        6.21230769      9.01071874     -2.25271587
  C        8.24554942      9.46231839     -2.85205282
  H        9.24386865      9.02406940     -2.70819815
  H        8.27220356     10.44281741     -2.35475143
  C        8.03049026      9.69221089     -4.36622415
  H        8.85690965     10.34091923     -4.69262004
  C        8.12802623      8.39315049     -5.18331942
  H        7.29750357      7.71277198     -4.96227770
  H        8.09830585      8.60549846     -6.25818224
  H        9.06256772      7.85930239     -4.97421246
  C        6.72230047     10.44024431     -4.67249306
  H        5.84276486      9.83183013     -4.43212535
  H        6.66013939     10.69784295     -5.73601755
  H        6.65147389     11.37178619     -4.09861269



