%Mem=256MB 
%NProc=12 

#P HF/6-31G* SCF(Conver=6) NoSymm Test 
   Pop=mk IOp(6/33=2) GFInput GFPrint 

MEP - Input generated by R.E.D.-III.x MOLECULE 

0 1 
  C        7.50957010      2.21634985      0.07181661
  H        7.34223640      2.18778785      1.15552854
  C        6.81902436      1.00658137     -0.57286101
  H        7.19886707      0.08140726     -0.12884817
  H        7.10596703      0.98702855     -1.63700795
  C        5.30730519      1.06180104     -0.45587554
  C        4.61778986      2.35737611     -0.89510078
  C        5.40268699      3.56501798     -0.29439045
  H        5.19697039      3.60658899      0.78432212
  H        5.01948268      4.49862577     -0.71972264
  C        6.92557392      3.51154241     -0.49157133
  H        7.17820413      3.58314602     -1.55986648
  H        7.39656771      4.37038802      0.00000000
  C        4.62981888     -0.00000000     -0.00000000
  H        5.16941023     -0.89303861      0.30730850
  C        3.13613319     -0.10311903      0.09492881
  H        2.83035973     -0.21272718      1.14703747
  C        2.37449821      1.06210672     -0.55796334
  H        2.31773902      0.84159609     -1.63208508
  C        3.15184374      2.39098497     -0.34250051
  H        3.25073319      2.50615374      0.74921801
  C        2.33410538      3.60145657     -0.84764092
  H        2.29258976      3.58783074     -1.94219130
  H        2.84898309      4.52954050     -0.57676513
  C        0.89614364      3.66667231     -0.29816843
  H        0.92813640      3.83239724      0.78846421
  H        0.39941559      4.54055226     -0.73072599
  C        0.11271368      2.36790307     -0.57595236
  C        0.95489792      1.20362288      0.02218601
  H        1.09572411      1.46935306      1.08407019
  C        0.00000000      0.00000000      0.00000000
  H        0.27653859     -0.76280405      0.73443274
  H        0.01596402     -0.49029404     -0.97852502
  C       -1.38828971      0.62631444      0.30040026
  H       -2.13463556      0.28526782     -0.42703938
  H       -1.75485766      0.31936644      1.28456853
  C       -1.22354144      2.18227966      0.22542915
  H       -1.02064126      2.55161041      1.24348619
  C       -0.13977860      2.19220359     -2.09114297
  H        0.78891720      2.11314082     -2.66186538
  H       -0.72700362      1.29474201     -2.30709267
  H       -0.69274202      3.04754392     -2.49258069
  C       -2.51281935      2.89618114     -0.25819517
  H       -2.76897514      2.48946943     -1.24842936
  C       -2.34655817      4.42034451     -0.39603007
  H       -1.97133353      4.85786379      0.53753300
  H       -3.30030681      4.90423253     -0.62686277
  H       -1.65213792      4.69179621     -1.19435436
  C        4.65043127      2.43354929     -2.44504023
  H        4.30951722      3.40961884     -2.80420209
  H        5.66199705      2.28378787     -2.83122022
  H        4.01886600      1.66066698     -2.89305940
  O        2.68021953     -1.28720789     -0.60731415
  O        3.15295304     -2.45360108      0.13188396
  H        2.30578796     -2.82443719      0.42901690
  O        8.93207282      2.15262247     -0.06380204
  H        9.15414664      2.16717055     -1.00542730
  C       -3.69725252      2.57338730      0.68924114
  H       -3.67152350      1.51136809      0.95110989
  H       -3.55286377      3.12264187      1.63278390
  C       -5.08834002      2.89748742      0.11994162
  H       -5.12943428      3.94791506     -0.19230692
  H       -5.24728317      2.30904249     -0.79395850
  C       -6.24891092      2.66281702      1.10517525
  H       -7.18124767      3.01128575      0.63647103
  H       -6.09438434      3.30566965      1.98391211
  C       -6.47111764      1.21553186      1.59427620
  H       -5.54894899      0.87020091      2.08319815
  C       -7.58984844      1.17927569      2.64787164
  H       -8.54368492      1.51014205      2.21707849
  H       -7.73613348      0.16591678      3.03892265
  H       -7.36221332      1.83627759      3.49520319
  C       -6.78490988      0.24839212      0.44177539
  H       -7.68901843      0.56345334     -0.09543996
  H       -6.95961111     -0.76584037      0.81849467
  H       -5.96833321      0.19295618     -0.28539852



