%Mem=26GB
%NProc=12
%RWF=/home/michal/Cholesterol_grant/peroxy_params,20GB
#P MP2/cc-pVQZ SP Nosymm

PEscan

0 1
C              -0.96550            -0.97642            -3.48264
C               0.02075            -0.49449            -2.43084
O               0.12102            -1.53370            -1.45717
O               1.46617            -1.46421            -0.90453
H               1.24657            -1.18328             0.00006
H              -1.94261            -1.20651            -3.02803
H               1.01529            -0.33306            -2.87815
H              -0.30675             0.45290            -1.95821
H              -1.11589            -0.19611            -4.24646
H              -0.58390            -1.88724            -3.96845

