%Mem=26GB
%NProc=12
%RWF=/home/michal/Cholesterol_grant/peroxy_params,20GB
#P MP2/cc-pVQZ SP Nosymm

PEscan

0 1
C              -0.97474            -0.97364            -3.47661
C               0.05577            -0.51560            -2.45715
O               0.18923            -1.58108            -1.52150
O               1.46815            -1.37816            -0.85357
H               1.14204            -1.19248             0.04335
H              -1.93432            -1.20487            -2.98694
H               1.03106            -0.33689            -2.94138
H              -0.25430             0.41743            -1.94610
H              -1.14791            -0.17907            -4.22021
H              -0.61982            -1.87774            -3.99431

