%Mem=26GB
%NProc=12
%RWF=/home/michal/Cholesterol_grant/peroxy_params,20GB
#P CCSD(T)/cc-pVDZ SP Nosymm

PEscan

0 1
C              -0.66645            -1.10155            -3.30421
C              -0.07099            -0.08407            -2.34318
O               0.28496            -0.57970            -1.03960
O               0.43056            -2.02521            -1.08552
H               1.39506            -2.08503            -0.97755
H              -1.54634            -1.59737            -2.86612
H               0.82889             0.36710            -2.80949
H              -0.78685             0.72843            -2.13283
H              -0.97854            -0.57090            -4.21926
H               0.06484            -1.87381            -3.57666

