%Mem=26GB
%NProc=12
%RWF=/home/michal/Cholesterol_grant/peroxy_params,20GB
#P MP2/cc-pVQZ SP Nosymm

PEscan

0 1
C              -0.56391            -1.12203            -3.30834
C              -0.01836            -0.05257            -2.37335
O               0.78974            -0.53351            -1.29343
O               0.19093            -1.75690            -0.77611
H               0.86576            -2.38567            -1.08047
H              -1.28373            -1.76869            -2.79001
H               0.66282             0.63991            -2.89616
H              -0.86334             0.53784            -1.96673
H              -1.07301            -0.63213            -4.15484
H               0.24827            -1.74836            -3.71499

