%Mem=26GB
%NProc=12
%RWF=/home/michal/Cholesterol_grant/peroxy_params,20GB
#P CCSD(T)/cc-pVDZ SP Nosymm

PEscan

0 1
C              -0.68812            -1.09626            -3.31526
C              -0.07730            -0.10396            -2.33744
O               0.20167            -0.61765            -1.02719
O               0.50408            -2.03665            -1.12800
H               1.45620            -2.00396            -0.93263
H              -1.59159            -1.56263            -2.89138
H               0.85497             0.30844            -2.77714
H              -0.75989             0.73859            -2.13659
H              -0.96805            -0.55678            -4.23548
H               0.02319            -1.89125            -3.57331

