%Mem=26GB
%NProc=12
%RWF=/home/michal/Cholesterol_grant/peroxy_params,20GB
#P CCSD(T)/cc-pVDZ SP Nosymm

PEscan

0 1
C              -0.54125            -1.10003            -3.42913
C               0.01278            -0.12955            -2.39602
O               0.97739            -0.73225            -1.53893
O               0.20212            -1.47040            -0.54329
H               0.55752            -2.35977            -0.70950
H              -1.08290            -1.91965            -2.93062
H               0.58110             0.68136            -2.88429
H              -0.78732             0.32447            -1.78635
H              -1.24255            -0.58731            -4.10841
H               0.27827            -1.52899            -4.02789

