%Mem=26GB
%NProc=12
%RWF=/home/michal/Cholesterol_grant/peroxy_params,20GB
#P MP2/cc-pVQZ SP Nosymm

PEscan

0 1
C              -0.98513            -0.97160            -3.45351
C               0.13331            -0.54452            -2.51645
O               0.35159            -1.64684            -1.64575
O               1.42447            -1.23648            -0.74726
H               0.92136            -1.23032             0.08449
H              -1.90024            -1.20095            -2.88533
H               1.06018            -0.31208            -3.07195
H              -0.15271             0.35063            -1.93181
H              -1.20684            -0.16143            -4.16637
H              -0.69086            -1.86853            -4.02048

