%Mem=26GB
%NProc=12
%RWF=/home/michal/Cholesterol_grant/peroxy_params,20GB
#P CCSD(T)/cc-pVDZ SP Nosymm

PEscan

0 1
C               0.02793            -0.00824             0.02355
C               0.00523             0.02892             1.54284
O               1.36004             0.09478             1.95229
O               1.28212             0.12834             3.41846
H               2.23697             0.17180             3.58899
H               0.58305            -0.88976            -0.33351
H              -0.54345             0.91326             1.91708
H              -0.46996            -0.87754             1.96199
H              -1.00178            -0.06022            -0.36445
H               0.50975             0.89680            -0.37831

