%Mem=26GB
%NProc=12
%RWF=/home/michal/Cholesterol_grant/peroxy_params,20GB
#P MP2/cc-pVQZ SP Nosymm

PEscan

0 1
C               0.01618            -0.03641             0.04559
C               0.12663             0.21707             1.54039
O               1.49191            -0.00353             1.87308
O               1.63331             0.30949             3.28410
H               1.44772            -0.56691             3.66527
H               0.31841            -1.06739            -0.19640
H              -0.16172             1.25153             1.79961
H              -0.52387            -0.47616             2.11108
H              -1.02428             0.11209            -0.28467
H               0.66560             0.65837            -0.50912

