%Mem=26GB
%NProc=12
%RWF=/home/michal/Cholesterol_grant/peroxy_params,20GB
#P CCSD(T)/cc-pVDZ SP Nosymm

PEscan

0 1
C               0.02773            -0.00628             0.02373
C               0.00666             0.02330             1.54323
O               1.36282             0.06563             1.95185
O               1.28899             0.06315             3.41836
H               2.22474             0.25974             3.58711
H               0.56774            -0.89513            -0.33813
H              -0.52930             0.91273             1.92381
H              -0.48100            -0.87911             1.95672
H              -1.00296            -0.03846            -0.36382
H               0.52449             0.89258            -0.37393

