%Mem=26GB
%NProc=12
%RWF=/home/michal/Cholesterol_grant/peroxy_params,20GB
#P MP2/cc-pVQZ SP Nosymm

PEscan

0 1
C               0.02734            -0.00423             0.02441
C               0.01037             0.01716             1.54415
O               1.36863             0.03511             1.94923
O               1.30375             0.00181             3.41504
H               2.19592             0.34528             3.58536
H               0.55150            -0.90002            -0.34346
H              -0.51150             0.91183             1.93203
H              -0.48986            -0.88053             1.95270
H              -1.00463            -0.01653            -0.36089
H               0.53837             0.88826            -0.36965

