%Mem=26GB
%NProc=12
%RWF=/home/michal/Cholesterol_grant/peroxy_params,20GB
#P MP2/cc-pVQZ SP Nosymm

PEscan

0 1
C               0.01956             0.00612             0.04841
C               0.12918            -0.00641             1.56432
O               1.51156            -0.15736             1.85689
O               1.63829            -0.24526             3.29919
H               1.41643             0.66982             3.55157
H               0.39389            -0.94136            -0.36884
H              -0.25093             0.94430             1.99458
H              -0.44521            -0.83905             2.00919
H              -1.03276             0.13371            -0.25142
H               0.60987             0.83363            -0.37496

