%Mem=26GB
%NProc=12
%RWF=/home/michal/Cholesterol_grant/peroxy_params,20GB
#P CCSD(T)/cc-pVDZ SP Nosymm

PEscan

0 1
C               0.01417            -0.00008             0.05829
C               0.18554             0.02673             1.56805
O               1.56881            -0.15217             1.81219
O               1.78821            -0.13477             3.25342
H               1.07230             0.45353             3.55536
H               0.34607            -0.96927            -0.34422
H              -0.14955             1.00378             1.98072
H              -0.40041            -0.77643             2.05614
H              -1.04567             0.14805            -0.20254
H               0.61043             0.79878            -0.40848

