%Mem=26GB
%NProc=12
%RWF=/home/michal/Cholesterol_grant/peroxy_params,20GB
#P CCSD(T)/cc-pVDZ SP Nosymm

PEscan

0 1
C               0.01491            -0.03518             0.04871
C               0.14345             0.20940             1.54343
O               1.51352            -0.00465             1.85829
O               1.67677             0.29859             3.26772
H               1.34369            -0.52887             3.65947
H               0.32384            -1.06156            -0.20380
H              -0.14975             1.23937             1.81504
H              -0.49562            -0.49411             2.11619
H              -1.03124             0.10561            -0.26654
H               0.65032             0.66954            -0.50958

