%Mem=26GB
%NProc=12
%RWF=/home/michal/Cholesterol_grant/peroxy_params,20GB
#P CCSD(T)/cc-pVDZ SP Nosymm

PEscan

0 1
C               0.01978            -0.03635             0.03597
C               0.08026             0.22507             1.53238
O               1.42366            -0.03328             1.91724
O               1.49316             0.29285             3.33827
H               1.75999            -0.58048             3.67100
H               0.29455            -1.07929            -0.18731
H              -0.18290             1.27224             1.76820
H              -0.61037            -0.43830             2.08734
H              -1.00156             0.14485            -0.33515
H               0.71332             0.63083            -0.49901

