%Mem=256MB 
%NProc=48 

#P HF/6-31G* SCF(Conver=6) NoSymm Test 
   Pop=mk IOp(6/33=2) GFInput GFPrint 

MEP - Input generated by R.E.D.-III.x MOLECULE 

0 1 
  O        6.84472606      0.78444857      0.00000000
  H        7.40938715      0.00000000      0.00000000
  O       10.45631401     -1.98858219      4.93403361
  H       10.14323480     -1.87787411      5.84282114
  C        2.79314328     -0.61055680      0.75723891
  C        4.09705718      0.20173894      0.51978495
  H        4.60147550     -0.29365231     -0.32205835
  C        5.09943919      0.17890800      1.68022123
  H        4.64825324      0.66839952      2.55559086
  C        5.47049851     -1.27991690      2.04784624
  H        6.04820128     -1.66875352      1.19273357
  C        2.04634853     -0.31839775     -0.59154008
  H        2.56204912     -0.91673658     -1.35949963
  C        3.23108416     -2.06998161      0.99987225
  H        3.70334276     -2.45132352      0.08307193
  H        2.37830945     -2.72466443      1.20536667
  C        6.43028166     -1.35956376      3.28646736
  C        3.61515226      1.55792778     -0.01235385
  H        4.38652272      2.06216670     -0.60099956
  H        3.34672666      2.23081874      0.81223485
  C        4.22172394     -2.18343272      2.17678288
  H        3.68637188     -1.94618480      3.10195414
  H        4.53271232     -3.23047486      2.26957873
  C        2.36700974      1.19205067     -0.86152969
  H        1.50933782      1.81786629     -0.58676793
  H        2.54868220      1.36839325     -1.92572757
  C        6.36771358      0.99419183      1.35023409
  H        6.10991816      2.05938801      1.36619545
  C        0.53329694     -0.63675227     -0.71995047
  H        0.00000000      0.00000000      0.00000000
  C        1.96763583     -0.07849184      1.95104968
  H        2.53973766     -0.06768300      2.88243509
  H        1.61356111      0.94245059      1.77907703
  H        1.08518884     -0.70401672      2.12232936
  C        7.53454838     -0.29985601      3.17718954
  C        7.10255551     -2.76732617      3.30716904
  H        7.47974177     -2.98296976      2.29777428
  H        6.34427637     -3.52770246      3.52268988
  C        7.48123962      0.73535797      2.32289858
  H        8.31415287      1.43688379      2.28508209
  C        5.66556834     -1.12991754      4.61861162
  H        4.99049724     -1.96237202      4.83863252
  H        6.35060623     -1.03912915      5.46520977
  H        5.07469001     -0.20971901      4.58262134
  C        8.72636297     -0.45463603      4.10407408
  H        9.48980168      0.29277095      3.86689277
  H        8.41583110     -0.26879017      5.14470386
  C        8.26657180     -2.91682997      4.29867592
  H        7.90552161     -2.82146143      5.33337632
  H        8.70737132     -3.91636641      4.21148609
  C        0.04048430     -0.26212078     -2.14151643
  H        0.32607359      0.77363831     -2.35883441
  H        0.58565564     -0.88554554     -2.86603869
  C        9.34246195     -1.86085746      4.04665585
  H        9.77459472     -2.01910809      3.05083462
  C        0.18975423     -2.10214276     -0.40280645
  H        0.75508346     -2.78719056     -1.04743702
  H       -0.87413693     -2.30364987     -0.56054536
  H        0.41095322     -2.36177387      0.63469390
  C       -1.46989145     -0.39765570     -2.42055980
  H       -1.62822622     -0.14605539     -3.47688416
  H       -1.78184018     -1.44325947     -2.31453393
  C       -2.35313489      0.50568585     -1.54409912
  H       -1.96835836      1.53465643     -1.60181090
  H       -2.25172565      0.20393288     -0.49298693
  C       -3.86147225      0.53240755     -1.88844915
  H       -4.32618839      1.20586238     -1.15303100
  C       -4.52975907     -0.84308641     -1.72622177
  H       -4.16228573     -1.56056699     -2.46897297
  H       -5.61551541     -0.76683135     -1.85487235
  H       -4.34045008     -1.26415572     -0.73169483
  C       -4.14480428      1.12324656     -3.27967835
  H       -3.76852203      0.47627023     -4.08037582
  H       -5.22249308      1.24429320     -3.43849470
  H       -3.67736652      2.10796001     -3.39751749



