%Mem=256MB 
%NProc=48 

#P HF/6-31G* SCF(Conver=6) NoSymm Test 
   Pop=mk IOp(6/33=2) GFInput GFPrint 

MEP - Input generated by R.E.D.-III.x MOLECULE 

0 1 
  O        0.00000000      0.00000000      0.00000000
  H       -0.40792567      0.47753404     -0.73467669
  O       -4.36409364      5.10312574      0.00000000
  H       -4.34276703      5.71788155      0.74685202
  C        3.83651930      1.91331758      0.73456521
  C        2.54312589      1.04917505      0.77549339
  H        2.37974025      0.71254985     -0.25761115
  C        1.26892073      1.80543719      1.16975965
  H        1.36046865      2.15326117      2.20869310
  C        1.05194883      3.02773374      0.24033872
  H        0.80978739      2.61180865     -0.75188075
  C        4.85820922      0.79759940      0.31975754
  H        4.57366050      0.54090655     -0.70989089
  C        3.58930022      3.03069587     -0.29698334
  H        3.45605724      2.57723291     -1.28908268
  H        4.45068642      3.70499835     -0.37237448
  C       -0.19335465      3.88377330      0.66266686
  C        2.94166316     -0.20285898      1.57589544
  H        2.31385563     -1.06185631      1.32302783
  H        2.83285782     -0.03015445      2.65432056
  C        2.34101516      3.86511406      0.05629904
  H        2.55046185      4.43219538      0.96900648
  H        2.18488727      4.61027166     -0.73225173
  C        4.43415068     -0.42429593      1.19616000
  H        5.05595006     -0.50297857      2.09383187
  H        4.57903611     -1.35720410      0.64052122
  C        0.03217189      0.88239926      1.14661073
  H        0.09793784      0.19307058      1.99625950
  C        6.40012503      0.99863530      0.26632345
  H        6.77963204     -0.00000000     -0.00000000
  C        4.16888738      2.52707495      2.11473572
  H        3.31314629      3.05165230      2.54767629
  H        4.48071183      1.77042324      2.83920286
  H        4.98040668      3.25580743      2.03037406
  C       -1.37804171      2.97164184      1.00785018
  C       -0.60725764      4.78986831     -0.53821847
  H       -0.64325346      4.16672679     -1.44268018
  H        0.17138850      5.54050686     -0.71077511
  C       -1.25400566      1.65206217      1.22626917
  H       -2.14454553      1.06323275      1.44426116
  C        0.11604957      4.77060898      1.89951770
  H        0.82705217      5.56442904      1.65177002
  H       -0.78530441      5.25456944      2.28360987
  H        0.53605253      4.17736731      2.71732027
  C       -2.74189703      3.62973162      1.10993083
  H       -3.51745988      2.87195261      1.25819194
  H       -2.77243628      4.28876364      1.99228665
  C       -1.96401487      5.49395747     -0.38370040
  H       -1.93064897      6.21606911      0.44541670
  H       -2.19422865      6.06691672     -1.28907257
  C        6.88676246      1.96546136     -0.84081281
  H        6.52232999      2.97698640     -0.62045551
  H        7.98058372      2.02995946     -0.76247762
  C       -3.08090562      4.48417157     -0.12101984
  H       -3.18261032      3.82641504     -0.99304920
  C        7.10198798      1.36627923      1.58950932
  H        6.96797545      2.42076335      1.84824677
  H        8.17990845      1.19240852      1.49381538
  H        6.75106441      0.76731573      2.43486731
  C        6.51841486      1.61984428     -2.29699183
  H        5.43059819      1.66625176     -2.42603425
  H        6.91964430      2.41170065     -2.94261090
  C        7.00159263      0.24970787     -2.81053228
  H        6.65623296      0.13081534     -3.84827137
  H        6.50505174     -0.54704194     -2.24044018
  C        8.52342737     -0.00495744     -2.77733918
  H        8.86760183      0.09796107     -1.73798969
  C        9.30659230      1.00286193     -3.63378602
  H        8.98214438      0.95750896     -4.68164247
  H       10.38052012      0.78554744     -3.60965563
  H        9.17154100      2.03269027     -3.28771681
  C        8.83062100     -1.44383303     -3.22265050
  H        8.51392330     -1.60770835     -4.26074958
  H        9.90395239     -1.65812633     -3.16534877
  H        8.30832929     -2.17635279     -2.59652540



