%Mem=256MB 
%NProc=48 

#P HF/6-31G* SCF(Conver=6) NoSymm Test 
   Pop=mk IOp(6/33=2) GFInput GFPrint 

MEP - Input generated by R.E.D.-III.x MOLECULE 

0 1 
  O        6.83647934      0.78346455      0.00000000
  H        7.40252924     -0.00000000      0.00000000
  O       10.44650662     -1.98370601      4.93981040
  H       10.13086989     -1.87511436      5.84796497
  C        2.78806250     -0.62297250      0.75242957
  C        4.08832425      0.19470219      0.51648963
  H        4.59478777     -0.29528198     -0.32732208
  C        5.09037595      0.17221212      1.67729061
  H        4.63750059      0.65936560      2.55295056
  C        5.46470307     -1.28633972      2.04357594
  H        6.04501038     -1.67236571      1.18896152
  C        2.03954540     -0.33297754     -0.59508933
  H        2.55342431     -0.93147358     -1.36418091
  C        3.22867682     -2.08158793      0.99229331
  H        3.70288651     -2.45978127      0.07516779
  H        2.37615860     -2.73768592      1.19480850
  C        6.42244562     -1.36442271      3.28388155
  C        3.59861926      1.55049164     -0.01035338
  H        4.36812464      2.06416792     -0.59329735
  H        3.32181754      2.21654211      0.81692247
  C        4.21867385     -2.19471158      2.16957322
  H        3.68178882     -1.96190860      3.09499337
  H        4.53355989     -3.24078519      2.25995099
  C        2.35706897      1.17883028     -0.86702844
  H        1.49494716      1.80323361     -0.60366159
  H        2.55042114      1.35391158     -1.92931186
  C        6.35697101      0.99086861      1.34967938
  H        6.09644876      2.05540550      1.36608644
  C        0.52659852     -0.64850717     -0.71581785
  H        0.00000000      0.00000000      0.00000000
  C        1.96262491     -0.09405110      1.94821272
  H        2.53790056     -0.07830803      2.87757686
  H        1.60208956      0.92461617      1.77630412
  H        1.08456384     -0.72411689      2.12414854
  C        7.52404086     -0.30155561      3.17769253
  C        7.09871017     -2.77022815      3.30456659
  H        7.47891041     -2.98361266      2.29581545
  H        6.34215637     -3.53303934      3.51745129
  C        7.46956519      0.73413763      2.32400977
  H        8.30068849      1.43788158      2.28820487
  C        5.65373006     -1.13821652      4.61440425
  H        4.98120321     -1.97326681      4.83228647
  H        6.33596222     -1.04527695      5.46302723
  H        5.05950890     -0.22019994      4.57724848
  C        8.71453610     -0.45380474      4.10667071
  H        9.47653635      0.29562902      3.87123697
  H        8.40169129     -0.26902866      5.14674158
  C        8.26071824     -2.91737656      4.29871200
  H        7.89686807     -2.82368707      5.33259348
  H        8.70437445     -3.91568102      4.21188375
  C       -0.00295342     -0.29648177     -2.14016354
  H        0.73676998      0.30845956     -2.67432989
  H       -0.10253703     -1.22305397     -2.72366809
  C        9.33440435     -1.85840864      4.04992072
  H        9.76923336     -2.01496354      3.05500859
  C        0.17716543     -2.10912743     -0.37428955
  H        0.77849134     -2.80327130     -0.97451196
  H       -0.87499869     -2.31785021     -0.58992461
  H        0.34659791     -2.34553079      0.67933317
  C       -1.33743936      0.47338161     -2.18077192
  H       -1.21235133      1.41205784     -1.62499941
  H       -1.53648393      0.76161471     -3.22316920
  C       -2.56017538     -0.28880063     -1.64776921
  H       -2.43166887     -0.50871191     -0.57811181
  H       -2.61407982     -1.26220811     -2.15645415
  C       -3.91059523      0.43298734     -1.83863908
  H       -4.00585619      0.68116643     -2.90719214
  C       -3.99711944      1.74457757     -1.04117538
  H       -3.87881552      1.55378276      0.03358058
  H       -4.97031991      2.22718821     -1.18653021
  H       -3.22629106      2.46173718     -1.34007433
  C       -5.07657507     -0.49769227     -1.46896408
  H       -5.03020434     -0.78030734     -0.40931629
  H       -6.04383336     -0.01146137     -1.63992962
  H       -5.05524893     -1.42015887     -2.06054935



