%Mem=256MB 
%NProc=48 

#P HF/6-31G* SCF(Conver=6) NoSymm Test 
   Pop=mk IOp(6/33=2) GFInput GFPrint 

MEP - Input generated by R.E.D.-III.x MOLECULE 

0 1 
  O        6.85097434      0.78493819     -0.00000000
  H        7.41498649      0.00000000      0.00000000
  O       10.45951878     -1.98204937      4.94191249
  H       10.14489567     -1.87028455      5.85003345
  C        2.80020998     -0.61489293      0.75605205
  C        4.10266667      0.19936488      0.51824478
  H        4.60747550     -0.29441059     -0.32434734
  C        5.10501840      0.17709196      1.67876704
  H        4.65273277      0.66578843      2.55392820
  C        5.47811446     -1.28122866      2.04657352
  H        6.05841384     -1.66861273      1.19255041
  C        2.05079743     -0.32243137     -0.59129178
  H        2.56467816     -0.92079807     -1.36035092
  C        3.24036331     -2.07397053      0.99604088
  H        3.71341075     -2.45263494      0.07854846
  H        2.38854794     -2.73031625      1.19997627
  C        6.43550330     -1.35882372      3.28709269
  C        3.61815280      1.55541387     -0.01184769
  H        4.38855784      2.06237900     -0.59942743
  H        3.34804576      2.22628948      0.81379615
  C        4.23104402     -2.18782237      2.17281184
  H        3.69475069     -1.95420242      3.09837912
  H        4.54441011     -3.23436547      2.26320329
  C        2.37126493      1.18813209     -0.86220310
  H        1.51273672      1.81413616     -0.59028455
  H        2.55588402      1.36331125     -1.92606362
  C        6.37248970      0.99396768      1.34976926
  H        6.11339923      2.05885399      1.36548851
  C        0.53775686     -0.64119038     -0.71531026
  H        0.00000000      0.00000000      0.00000000
  C        1.97590961     -0.08473998      1.95173036
  H        2.54923367     -0.07444147      2.88237565
  H        1.62090946      0.93617192      1.78143090
  H        1.09405401     -0.71072973      2.12380060
  C        7.53875868     -0.29800021      3.17868008
  C        7.10913472     -2.76583411      3.31059178
  H        7.48834422     -2.98239154      2.30214121
  H        6.35123761     -3.52667413      3.52579722
  C        7.48541912      0.73651967      2.32353956
  H        8.31770687      1.43881022      2.28611618
  C        5.66760970     -1.12874177      4.61736423
  H        4.99266984     -1.96153995      4.83641885
  H        6.35039761     -1.03688953      5.46566934
  H        5.07620106     -0.20898033      4.57935649
  C        8.72974785     -0.45062855      4.10702409
  H        9.49287391      0.29698208      3.86944293
  H        8.41809091     -0.26319870      5.14699667
  C        8.27149808     -2.91292172      4.30434403
  H        7.90855146     -2.81639216      5.33828052
  H        8.71329191     -3.91220938      4.21935747
  C        0.02801911     -0.27166311     -2.13077686
  H        0.38794973      0.72898014     -2.39536160
  H        0.48272092     -0.95987865     -2.86005420
  C        9.34697347     -1.85644993      4.05261074
  H        9.78074334     -2.01584015      3.05768556
  C        0.19609069     -2.10600970     -0.38964465
  H        0.77385205     -2.79269112     -1.02125705
  H       -0.86455866     -2.31302171     -0.56023935
  H        0.40457364     -2.35701334      0.65272144
  C       -1.49949326     -0.27994366     -2.30852814
  H       -1.89466891     -1.28785174     -2.13879329
  H       -1.94786343      0.36302504     -1.53878525
  C       -1.92194585      0.20543647     -3.70497876
  H       -1.43222971     -0.42771473     -4.45909866
  H       -1.52610925      1.21965213     -3.85929707
  C       -3.43953920      0.22683365     -4.00203931
  H       -3.53952029      0.60525345     -5.03019743
  C       -4.20843904      1.19537759     -3.08808647
  H       -4.21007969      0.85308078     -2.04677489
  H       -5.25411251      1.28314407     -3.40455927
  H       -3.76774232      2.19911153     -3.10946604
  C       -4.07006437     -1.17551944     -3.97533797
  H       -4.06854325     -1.60112031     -2.96520598
  H       -5.11231404     -1.14050836     -4.31263554
  H       -3.53000869     -1.86851561     -4.63123031



