%Mem=256MB 
%NProc=48 

#P HF/6-31G* SCF(Conver=6) NoSymm Test 
   Pop=mk IOp(6/33=2) GFInput GFPrint 

MEP - Input generated by R.E.D.-III.x MOLECULE 

0 1 
  O        5.51042303      3.84168631      0.00000000
  H        4.99070174      3.48906798      0.73464959
  O        0.00000000      0.00000000      0.00000000
  H       -0.13166159     -0.60262444     -0.74543756
  C        8.72601107      1.00956760     -0.71930247
  C        7.70770752      2.17686837     -0.75059966
  H        7.63099685      2.52972875      0.28731680
  C        6.28679779      1.76827942     -1.15412176
  H        6.29591887      1.40199400     -2.19081157
  C        5.76488298      0.64493722     -0.21791547
  H        5.62746977      1.11920984      0.76809493
  C       10.00677833      1.79856492     -0.30263489
  H        9.80923358      2.09663784      0.73723122
  C        8.22192561     -0.00560241      0.32114636
  H        8.22570494      0.47291321      1.31106434
  H        8.88998961     -0.87474292      0.39017358
  C        4.34640728      0.12740734     -0.64572576
  C        8.42869431      3.29447248     -1.52679041
  H        8.05329522      4.28355826     -1.25016191
  H        8.27771472      3.18470174     -2.60838367
  C        6.79613607     -0.49414618     -0.00947292
  H        6.84336672     -1.12147591     -0.90504295
  H        6.45481602     -1.15104818      0.79874516
  C        9.93328470      3.10322554     -1.15697374
  H       10.54188233      3.02252785     -2.06207227
  H       10.32279999      3.96033516     -0.59809614
  C        5.32209686      2.97242858     -1.14168567
  H        5.56275810      3.61745110     -1.99470165
  C       11.36826921      1.04519443     -0.26206656
  H       11.14198209      0.00000000      0.00000000
  C        8.89742031      0.32484077     -2.09335526
  H        7.96449994     -0.11437120     -2.45599675
  H        9.24163089      1.02256348     -2.86191416
  H        9.63038163     -0.48676891     -2.02887899
  C        3.43064718      1.30706132     -0.99940974
  C        3.71240100     -0.64277723      0.55395042
  H        3.83137078     -0.02922967      1.45790255
  H        4.27571237     -1.56530105      0.73021933
  C        3.88368392      2.55170536     -1.22306218
  H        3.17082786      3.34461228     -1.44760882
  C        4.42844491     -0.81146653     -1.88035467
  H        4.91381385     -1.75914045     -1.62859725
  H        3.43598865     -1.05230653     -2.26928613
  H        4.98905084     -0.34508302     -2.69599652
  C        1.94540189      1.01331210     -1.10571891
  H        1.38630220      1.94152737     -1.25912904
  H        1.75303233      0.38036670     -1.98673066
  C        2.22257776     -0.98236162      0.39421420
  H        2.07636947     -1.69125032     -0.43417251
  H        1.85175057     -1.47696306      1.29910519
  C       12.16237758      1.02095519     -1.59029526
  H       11.48125406      0.91770217     -2.44099638
  H       12.66758707      1.98811050     -1.72487727
  C        1.39735911      0.27569772      0.12534875
  H        1.46163071      0.94016494      0.99585716
  C       12.24422711      1.61416063      0.87318689
  H       12.44790954      2.67981567      0.70991054
  H       13.20845439      1.10048364      0.94349937
  H       11.74683042      1.51569813      1.84447531
  C       13.20543786     -0.10605477     -1.67766548
  H       13.90524165     -0.03146256     -0.83677184
  H       12.69097625     -1.07012304     -1.56519063
  C       13.98563398     -0.08129924     -3.00181614
  H       14.47866480      0.89673188     -3.09980851
  H       13.26871016     -0.14250893     -3.83354161
  C       15.05232195     -1.18374723     -3.19924683
  H       15.49557685     -0.99985329     -4.18920110
  C       14.44564859     -2.59640044     -3.23257544
  H       14.03444627     -2.88312208     -2.25780058
  H       15.20511256     -3.34073550     -3.49800381
  H       13.63753141     -2.66633313     -3.97031489
  C       16.19280661     -1.09654076     -2.17150597
  H       15.84414451     -1.33162040     -1.15926759
  H       16.99152822     -1.80666338     -2.41447326
  H       16.63380578     -0.09301442     -2.14882886



