%Mem=256MB 
%NProc=48 

#P HF/6-31G* SCF(Conver=6) NoSymm Test 
   Pop=mk IOp(6/33=2) GFInput GFPrint 

MEP - Input generated by R.E.D.-III.x MOLECULE 

0 1 
  O        5.76255584      3.44872248      0.00000000
  H        5.12458122      3.29171598      0.70889626
  O        0.00000000      0.00000000      0.00000000
  H       -0.08282849     -0.74433983     -0.61258882
  C        8.81922002      0.37414731      0.37309618
  C        7.89513422      1.54860322     -0.05489866
  H        7.71642406      2.12969236      0.86102368
  C        6.50962983      1.13403079     -0.56477840
  H        6.62649082      0.54942790     -1.48886549
  C        5.77679984      0.27187036      0.49388958
  H        5.55379715      0.95098256      1.33366066
  C       10.10349630      1.17841712      0.78083632
  H        9.86794455      1.65789213      1.74430268
  C        8.08015282     -0.36505929      1.50791563
  H        7.98136471      0.31720609      2.36448355
  H        8.64243432     -1.23322783      1.86567537
  C        4.38820355     -0.24980163     -0.01719631
  C        8.77762464      2.42785772     -0.95087143
  H        8.42434348      3.46227831     -0.98162688
  H        8.78155078      2.05720813     -1.98400585
  C        6.68239814     -0.84442812      1.06518897
  H        6.81002187     -1.63650005      0.32006976
  H        6.18895909     -1.31567570      1.92309804
  C       10.18637430      2.30225749     -0.30873412
  H       10.93849744      2.04471973     -1.06419932
  H       10.50472765      3.25128334      0.13240145
  C        5.65588849      2.36109355     -0.94887877
  H        6.05953785      2.78956800     -1.87346097
  C       11.45179655      0.43445768      0.97116056
  H       11.72926602      0.00000000      0.00000000
  C        9.13946432     -0.58859066     -0.79329777
  H        8.23819819     -1.00861331     -1.24741190
  H        9.69923023     -0.09069953     -1.59084501
  H        9.74751784     -1.43071238     -0.44618671
  C        3.62901118      0.87041569     -0.74048896
  C        3.54094811     -0.70116416      1.21268322
  H        3.59095556      0.09004604      1.97370413
  H        3.99777496     -1.59013080      1.66060560
  C        4.21068367      2.00951938     -1.15092217
  H        3.60286457      2.77109951     -1.63862463
  C        4.55137386     -1.44121896     -1.00013989
  H        4.91983549     -2.33382046     -0.48573920
  H        3.60122372     -1.70948590     -1.46864701
  H        5.24998615     -1.19712756     -1.80607259
  C        2.15112460      0.64066372     -0.99826508
  H        1.69660377      1.54115914     -1.42280516
  H        2.02313333     -0.15901923     -1.74523129
  C        2.06186608     -0.98827815      0.91233170
  H        1.96663314     -1.85341134      0.23960852
  H        1.53557061     -1.25088791      1.83700822
  C       12.55582351      1.44726332      1.37020622
  H       12.56482969      2.27052324      0.64820773
  H       12.27363522      1.89864824      2.33317045
  C        1.38702253      0.22181031      0.26707420
  H        1.39199092      1.05712008      0.97817133
  C       11.37634036     -0.70966468      1.99662456
  H       11.03387073     -0.34163186      2.97219043
  H       12.35504414     -1.17577761      2.14495127
  H       10.69338912     -1.50101948      1.68045241
  C       13.99110242      0.89874598      1.50109849
  H       14.63896655      1.72764597      1.81371706
  H       14.03966464      0.17238820      2.32157460
  C       14.58066498      0.23807043      0.24049874
  H       13.98925980     -0.65263532     -0.01171108
  H       15.58709970     -0.13309757      0.48498463
  C       14.68767542      1.12331016     -1.01929689
  H       13.68112200      1.48674947     -1.27178341
  C       15.18879701      0.29187806     -2.21121743
  H       16.19755902     -0.09645342     -2.02031605
  H       15.23251066      0.89326878     -3.12647111
  H       14.53385188     -0.56568959     -2.40416771
  C       15.58859623      2.34946677     -0.80155106
  H       16.60456538      2.04101466     -0.52227772
  H       15.66343379      2.94730878     -1.71702442
  H       15.21045788      3.00532725     -0.01079732



