%Mem=256MB 
%NProc=48 

#P HF/6-31G* SCF(Conver=6) NoSymm Test 
   Pop=mk IOp(6/33=2) GFInput GFPrint 

MEP - Input generated by R.E.D.-III.x MOLECULE 

0 1 
  O        5.76413005      3.44765515      0.00000000
  H        5.12679304      3.29047522      0.70943231
  O        0.00000000      0.00000000      0.00000000
  H       -0.08313502     -0.74354677     -0.61351167
  C        8.81942567      0.37196514      0.37194701
  C        7.89572172      1.54658836     -0.05609165
  H        7.71742919      2.12783839      0.85985108
  C        6.50979761      1.13273885     -0.56597189
  H        6.62591228      0.54863917     -1.49052087
  C        5.77696215      0.26993214      0.49212324
  H        5.55447208      0.94810578      1.33279299
  C       10.10328644      1.17591122      0.78137299
  H        9.86698686      1.65400355      1.74530983
  C        8.07984417     -0.36827087      1.50566545
  H        7.98036288      0.31323488      2.36276115
  H        8.64237213     -1.23653533      1.86286310
  C        4.38798099     -0.25070138     -0.01897193
  C        8.77913424      2.42517969     -0.95182671
  H        8.42555847      3.45944021     -0.98467359
  H        8.78499550      2.05295418     -1.98436153
  C        6.68247518     -0.84734448      1.06173541
  H        6.81025346     -1.63796356      0.31511593
  H        6.18884652     -1.32025975      1.91864059
  C       10.18679764      2.30119304     -0.30695413
  H       10.94199256      2.04664890     -1.06047020
  H       10.50154087      3.25043905      0.13635180
  C        5.65653477      2.36037407     -0.94912388
  H        6.05994911      2.78902783     -1.87372410
  C       11.45072245      0.43162997      0.97154550
  H       11.73691268      0.00000000      0.00000000
  C        9.14083348     -0.58975893     -0.79492864
  H        8.23984792     -1.00794271     -1.25115894
  H        9.70284637     -0.09171695     -1.59076989
  H        9.74725809     -1.43295713     -0.44770820
  C        3.62892101      0.87054868     -0.74085664
  C        3.54114768     -0.70302570      1.21077893
  H        3.59135447      0.08752355      1.97248196
  H        3.99816492     -1.59233994      1.65782569
  C        4.21105048      2.00963725     -1.15073541
  H        3.60350116      2.77190123     -1.63773175
  C        4.55002851     -1.44092196     -1.00351732
  H        4.91833778     -2.33441503     -0.49055672
  H        3.59943400     -1.70798691     -1.47179026
  H        5.24821497     -1.19617330     -1.80964292
  C        2.15084943      0.64143481     -0.99831291
  H        1.69632361      1.54249562     -1.42164898
  H        2.02242367     -0.15741795     -1.74610953
  C        2.06200536     -0.98966009      0.91062108
  H        1.96637171     -1.85411543      0.23709075
  H        1.53593167     -1.25307128      1.83519539
  C       12.56292278      1.43474705      1.36787727
  H       12.54559868      2.28400291      0.67482885
  H       12.32175494      1.84632950      2.35877473
  C        1.38714187      0.22127908      0.26683441
  H        1.39257825      1.05582308      0.97883402
  C       11.37427711     -0.71508745      1.99490860
  H       11.02101814     -0.34972167      2.96762435
  H       12.35534240     -1.17390669      2.14945155
  H       10.69897056     -1.51085355      1.67312854
  C       13.99098192      0.86266109      1.36920018
  H       14.10853657      0.12053321      2.16719216
  H       14.15153787      0.31836614      0.42758038
  C       15.09492866      1.92916087      1.49406984
  H       15.01296840      2.61808423      0.64089982
  H       16.07336824      1.43629658      1.39291093
  C       15.10821540      2.76360761      2.79263677
  H       14.13680403      3.27000198      2.88565579
  C       16.18928368      3.85332535      2.71179113
  H       17.18823523      3.40734315      2.62158332
  H       16.18713508      4.48394079      3.60821890
  H       16.03624114      4.50430445      1.84332340
  C       15.30996548      1.89646541      4.04543921
  H       16.25970506      1.34840851      3.99078131
  H       15.33597089      2.51545762      4.94951332
  H       14.50835647      1.16173473      4.17313824



