%Mem=256MB 
%NProc=48 

#P HF/6-31G* SCF(Conver=6) NoSymm Test 
   Pop=mk IOp(6/33=2) GFInput GFPrint 

MEP - Input generated by R.E.D.-III.x MOLECULE 

0 1 
  O        0.00000000      0.00000000      0.00000000
  H        0.96653237     -0.00000000      0.00000000
  O        4.36653846     -1.25277833     -4.94535130
  H        4.09341702     -1.05554907     -5.85236641
  C       -1.24582297      4.10482698     -0.72423412
  C       -1.14102503      2.57081178     -0.49850518
  H       -0.44434735      2.44606069      0.34263895
  C       -0.53287434      1.78276190     -1.66497090
  H       -1.19268585      1.86879283     -2.54052676
  C        0.86721376      2.34128415     -2.02517107
  H        1.51972976      2.09128948     -1.17202707
  C       -1.92358920      4.52408002      0.62656833
  H       -1.13888950      4.43019937      1.39141829
  C        0.19293456      4.60934624     -0.95648044
  H        0.77610164      4.44300278     -0.03932644
  H        0.22074937      5.68619506     -1.15210670
  C        1.49491651      1.62264533     -3.27074946
  C       -2.52322934      2.16100287      0.03030786
  H       -2.47535560      1.24371130      0.62368730
  H       -3.22118364      1.97435777     -0.79602756
  C        0.87002969      3.88434796     -2.13784595
  H        0.36904468      4.18972547     -3.06222414
  H        1.90171207      4.24504612     -2.22212557
  C       -2.97291139      3.38914716      0.87004414
  H       -3.97176991      3.72359009      0.56546319
  H       -3.04290704      3.14323142      1.93429551
  C       -0.44897715      0.27465796     -1.34823394
  H       -1.46277471     -0.14150894     -1.36846122
  C       -2.53853051      5.93902631      0.76431995
  H       -3.32426010      6.02906279      0.00000000
  C       -2.15419670      4.47443598     -1.91892452
  H       -1.82231384      4.01438967     -2.85327745
  H       -3.19017827      4.16167820     -1.75688700
  H       -2.16221198      5.55811843     -2.07878104
  C        1.28464092      0.10570308     -3.17567557
  C        3.02928925      1.90458148     -3.28907245
  H        3.42559090      1.71651207     -2.28148412
  H        3.19984539      2.96672088     -3.49489949
  C        0.41463153     -0.46639346     -2.32703777
  H        0.33505780     -1.55277106     -2.29938269
  C        0.86026217      2.11997345     -4.59819876
  H        1.13739178      3.15749572     -4.80747764
  H        1.18968094      1.52104121     -5.45084314
  H       -0.23152845      2.05709324     -4.56348008
  C        2.10944878     -0.75991416     -4.11050435
  H        1.95236803     -1.81882464     -3.88302712
  H        1.77655917     -0.60801207     -5.14971600
  C        3.83318677      1.05909850     -4.28862572
  H        3.54387823      1.30508269     -5.32102359
  H        4.90120642      1.28795778     -4.19952055
  C       -3.26193830      6.13964571      2.12419591
  H       -3.75848800      7.11816352      2.08521247
  H       -4.06786296      5.40084360      2.21985604
  C        3.60962950     -0.43403906     -4.05033803
  H        3.99152680     -0.70003347     -3.05693978
  C       -1.53265450      7.07981090      0.52063837
  H       -0.63157441      6.96847579      1.13419356
  H       -1.98453348      8.04802091      0.76720741
  H       -1.21450606      7.12832263     -0.52384262
  C       -2.38172000      6.06902637      3.38339743
  H       -1.84946039      5.10965717      3.40351607
  H       -1.60364183      6.84107684      3.34285669
  C       -3.16653624      6.19116898      4.70368128
  H       -2.47445532      6.01419616      5.54045895
  H       -3.90533983      5.37770539      4.74563487
  C       -3.89775555      7.52590492      4.96211509
  H       -4.60197604      7.70025319      4.13616389
  C       -2.93353800      8.72137825      5.02024929
  H       -2.19294371      8.58530699      5.81924663
  H       -3.47552055      9.65161971      5.22549655
  H       -2.38806632      8.85887381      4.08103222
  C       -4.72200010      7.43576317      6.25656667
  H       -4.07090424      7.26526589      7.12370531
  H       -5.28096910      8.36091205      6.43813106
  H       -5.44262732      6.61092334      6.21478978



