%Mem=256MB 
%NProc=48 

#P HF/6-31G* SCF(Conver=6) NoSymm Test 
   Pop=mk IOp(6/33=2) GFInput GFPrint 

MEP - Input generated by R.E.D.-III.x MOLECULE 

0 1 
  O        0.00000000      0.00000000      0.00000000
  H        0.96651996     -0.00000000      0.00000000
  O        4.37058299     -2.76667281     -4.28242186
  H        4.09737036     -2.87099481     -5.20472526
  C       -1.24599925      3.65416931     -2.00393160
  C       -1.15226641      2.26884044     -1.30119125
  H       -0.46385506      2.41179571     -0.45678824
  C       -0.53700024      1.15051313     -2.15067390
  H       -1.19277272      0.94412890     -3.00863429
  C        0.86346448      1.56850137     -2.66889616
  H        1.51457928      1.60542577     -1.77959164
  C       -1.91604685      4.46870080     -0.84281461
  H       -1.13925388      4.52147732     -0.06750720
  C        0.19321070      4.05753581     -2.37823612
  H        0.77837684      4.18614268     -1.45700418
  H        0.21684174      5.02016369     -2.90273981
  C        1.49389218      0.48957460     -3.61792593
  C       -2.54591659      2.05379095     -0.68612258
  H       -2.50999008      1.37626321      0.17156996
  H       -3.23367626      1.61122348     -1.41810826
  C        0.86864431      2.99530710     -3.26974724
  H        0.36785994      2.99128994     -4.24318853
  H        1.90122109      3.30786387     -3.46347854
  C       -3.00113441      3.48847201     -0.29229522
  H       -3.98714845      3.71212797     -0.71215806
  H       -3.09773641      3.60159741      0.79302352
  C       -0.44896990     -0.17485586     -1.36470558
  H       -1.46172798     -0.57799982     -1.24981069
  C       -2.43458506      5.92880898     -0.98374804
  H       -2.88128765      6.13896491      0.00000000
  C       -2.13182748      3.60434118     -3.27047728
  H       -1.83551624      2.79869058     -3.94726677
  H       -3.18694877      3.44988222     -3.03077159
  H       -2.05600059      4.53872746     -3.83429875
  C        1.28600816     -0.91731014     -3.04146902
  C        3.02798434      0.75297948     -3.72494544
  H        3.42351747      0.89822435     -2.70999339
  H        3.19757522      1.69327882     -4.26030610
  C        0.41691689     -1.18885755     -2.05386721
  H        0.33967367     -2.20917843     -1.67930544
  C        0.85978852      0.53426769     -5.03498396
  H        1.13407789      1.45143362     -5.56470801
  H        1.19243964     -0.30462769     -5.65131385
  H       -0.23185755      0.48224157     -4.98251710
  C        2.11232768     -2.03572631     -3.64960316
  H        1.95643262     -2.96607895     -3.09476907
  H        1.77966447     -2.22533226     -4.68266309
  C        3.83374377     -0.36707132     -4.40058882
  H        3.54500285     -0.46514844     -5.45748483
  H        4.90139286     -0.12014813     -4.38909084
  C       -1.32693407      6.98839296     -1.20443426
  H       -0.85807529      6.81569710     -2.18162718
  H       -1.82045930      7.96790623     -1.28468535
  C        3.61198489     -1.70559303     -3.69677538
  H        3.99366531     -1.63904732     -2.67045585
  C       -3.56215861      6.17310674     -2.00728625
  H       -3.18781094      6.20082407     -3.03485986
  H       -4.03304537      7.14281126     -1.80936119
  H       -4.34900323      5.41480324     -1.95846116
  C       -0.22128293      7.10433430     -0.13746036
  H        0.33321514      6.16057032     -0.05705785
  H        0.50335251      7.84529508     -0.49736697
  C       -0.72037480      7.51463452      1.25651505
  H       -1.44237603      6.76991789      1.61607674
  H       -1.27519389      8.46283973      1.17959746
  C        0.37974608      7.66786577      2.32803218
  H        0.96052979      6.73247759      2.34352771
  C       -0.24600040      7.85220601      3.71985764
  H       -0.84506405      8.77109730      3.75992372
  H        0.52391547      7.92469211      4.49650755
  H       -0.90423287      7.01438911      3.97678337
  C        1.35023817      8.82015861      2.02110765
  H        0.81354017      9.77675200      1.97378779
  H        2.11332378      8.90699985      2.80296985
  H        1.87069511      8.68154189      1.06830925



