%Mem=256MB 
%NProc=48 

#P HF/6-31G* SCF(Conver=6) NoSymm Test 
   Pop=mk IOp(6/33=2) GFInput GFPrint 

MEP - Input generated by R.E.D.-III.x MOLECULE 

0 1 
  O        0.00000000      0.00000000      0.00000000
  H        0.96654191     -0.00000000      0.00000000
  O        4.35759009     -1.30365227     -4.94230226
  H        4.08183098     -1.11555369     -5.85045841
  C       -1.23856010      4.10157157     -0.75591861
  C       -1.13538308      2.56888308     -0.51925565
  H       -0.43961935      2.44828161      0.32334086
  C       -0.53015129      1.76999357     -1.67992682
  H       -1.19121359      1.84938551     -2.55518619
  C        0.86973545      2.32287142     -2.04844807
  H        1.52422748      2.08075927     -1.19452820
  C       -1.91244565      4.53707103      0.59263054
  H       -1.12517646      4.47237530      1.36052046
  C        0.20105180      4.60044213     -0.99822960
  H        0.78672710      4.43910535     -0.08175454
  H        0.23257595      5.67538601     -1.20203419
  C        1.49348569      1.59177504     -3.28870527
  C       -2.51838428      2.16766099      0.01061838
  H       -2.47944588      1.24427142      0.59510592
  H       -3.22135476      1.99796027     -0.81503015
  C        0.87238752      3.86446861     -2.17600874
  H        0.36696246      4.16103509     -3.10090597
  H        1.90362396      4.22446101     -2.26841114
  C       -2.94754583      3.39138242      0.86571188
  H       -3.95955677      3.72043282      0.60037464
  H       -2.97511408      3.13527780      1.92885666
  C       -0.44898320      0.26436141     -1.35023708
  H       -1.46362137     -0.14992263     -1.36649083
  C       -2.54023928      5.95005042      0.71521959
  H       -3.37499799      6.00908152      0.00000000
  C       -2.15309567      4.45911950     -1.95006067
  H       -1.82890461      3.98513738     -2.88011221
  H       -3.18888636      4.15198249     -1.77670643
  H       -2.15973323      5.54008757     -2.12487985
  C        1.28161140      0.07608502     -3.17863013
  C        3.02814310      1.87152614     -3.31370266
  H        3.42658493      1.69288898     -2.30524822
  H        3.19958992      2.93134773     -3.53041351
  C        0.41242233     -0.48682385     -2.32311024
  H        0.33158666     -1.57279186     -2.28500541
  C        0.85555759      2.07682151     -4.61910172
  H        1.13459600      3.11136786     -4.84040103
  H        1.18031709      1.46792341     -5.46645030
  H       -0.23630076      2.01723915     -4.57976208
  C        2.10321649     -0.79981880     -4.10671263
  H        1.94517707     -1.85619118     -3.86834707
  H        1.76806969     -0.65783024     -5.14661927
  C        3.82861597      1.01510339     -4.30682497
  H        3.53709595      1.25126398     -5.34090604
  H        4.89711296      1.24354914     -4.22256555
  C       -3.13676934      6.15583912      2.13158771
  H       -3.66838464      5.24860101      2.43373192
  H       -2.30911780      6.27584613      2.84809597
  C        3.60389506     -0.47530515     -4.05338058
  H        3.98807348     -0.73223848     -3.05847376
  C       -1.55023988      7.08235995      0.38742414
  H       -0.64216399      6.99522167      0.99710209
  H       -1.98898416      8.06452910      0.58768347
  H       -1.24847970      7.07798681     -0.66247159
  C       -4.09941812      7.34760174      2.26269862
  H       -3.60359665      8.26747780      1.93010542
  H       -4.94588198      7.20162964      1.57784607
  C       -4.61639695      7.59332523      3.69277794
  H       -5.21486241      8.51655315      3.69435777
  H       -3.75358493      7.79196916      4.34502053
  C       -5.46321427      6.47329082      4.33432575
  H       -4.86121984      5.55371711      4.35611559
  C       -6.74565418      6.17911207      3.54001504
  H       -7.37404606      7.07660884      3.46919636
  H       -7.33796386      5.39722573      4.02882570
  H       -6.53234543      5.84099554      2.52080214
  C       -5.80190731      6.83416950      5.78965122
  H       -6.41076188      7.74642037      5.83488241
  H       -6.36828563      6.03257774      6.27738774
  H       -4.89472887      7.01044535      6.37905846



