%Mem=256MB 
%NProc=48 

#P HF/6-31G* SCF(Conver=6) NoSymm Test 
   Pop=mk IOp(6/33=2) GFInput GFPrint 

MEP - Input generated by R.E.D.-III.x MOLECULE 

0 1 
  O        0.00000000      0.00000000      0.00000000
  H       -0.47099792      0.45466836     -0.71110850
  O       -3.27012822      5.86571169      0.00000000
  H       -2.97027205      6.55170502      0.61291289
  C        4.18377679      1.13776163     -0.37595753
  C        2.79709976      0.58149447      0.05259253
  H        2.35177772      0.16681657     -0.86301556
  C        1.80379819      1.63262619      0.56297581
  H        2.19751655      2.08068257      1.48683995
  C        1.59912562      2.74585012     -0.49533555
  H        1.06669330      2.26923167     -1.33528790
  C        4.89502799     -0.19985928     -0.78507895
  H        4.45259848     -0.49605345     -1.74949236
  C        3.91256895      2.14781499     -1.51018659
  H        3.48569894      1.60648009     -2.36674451
  H        4.83355874      2.61866534     -1.86802247
  C        0.65679194      3.89123031      0.01614629
  C        3.12410741     -0.62055476      0.94856364
  H        2.30100258     -1.33967489      0.98250782
  H        3.31609407     -0.30054536      1.98077232
  C        2.94128685      3.26093211     -1.06658568
  H        3.44750187      3.88281721     -0.32101953
  H        2.74908398      3.91639321     -1.92393636
  C        4.40469816     -1.21688005      0.30264333
  H        5.18638916     -1.37545504      1.05544120
  H        4.20133864     -2.19562397     -0.14151472
  C        0.45158117      0.99598396      0.94794954
  H        0.58777321      0.42343314      1.87260899
  C        6.43451829     -0.22652778     -0.97359438
  H        6.89579418     -0.00000000     -0.00000000
  C        4.94237300      1.81085869      0.79094091
  H        4.37160305      2.62457857      1.24590117
  H        5.17885689      1.09923886      1.58778513
  H        5.88975241      2.23677444      0.44422966
  C       -0.56004472      3.29980728      0.73988629
  C        0.14769679      4.70534007     -1.21351104
  H       -0.20439758      3.99486156     -1.97437854
  H        0.98727319      5.24736781     -1.66174798
  C       -0.62480974      2.02241731      1.15027894
  H       -1.53162866      1.66606854      1.63814205
  C        1.39350466      4.84177455      0.99896910
  H        2.15885389      5.43064267      0.48461858
  H        0.70469918      5.54918810      1.46733948
  H        1.87637428      4.28124954      1.80508229
  C       -1.72591949      4.23665745      0.99799676
  H       -2.56918496      3.68317874      1.42260539
  H       -1.43762306      4.99342424      1.74498549
  C       -0.99036891      5.69257668     -0.91278324
  H       -0.64076911      6.48976123     -0.24021380
  H       -1.31554381      6.18286493     -1.83736912
  C        6.89888020     -1.64809062     -1.37789104
  H        6.42738723     -2.38446145     -0.71736516
  H        6.52547234     -1.86631152     -2.39040574
  C       -2.17911079      4.98103032     -0.26722602
  H       -2.59191818      4.25469771     -0.97818923
  C        6.94070202      0.81084266     -1.99149915
  H        6.44485981      0.68162998     -2.96192090
  H        8.01802146      0.71286784     -2.15495351
  H        6.76214549      1.83616124     -1.66008642
  C        8.41740693     -1.88707923     -1.33408294
  H        8.92474281     -1.22889339     -2.04840368
  H        8.78967469     -1.61016224     -0.33825044
  C        8.78186364     -3.34927116     -1.63953416
  H        8.36740113     -3.61574456     -2.62269841
  H        8.27315312     -3.99780361     -0.91169254
  C       10.28715765     -3.70405362     -1.63610595
  H       10.34341392     -4.77893960     -1.86361910
  C       10.94081200     -3.49953449     -0.25933364
  H       10.98140513     -2.43913016      0.01524686
  H       11.96969870     -3.87725463     -0.25606703
  H       10.38872607     -4.02770458      0.52704413
  C       11.07321246     -2.96970604     -2.73506937
  H       11.12014676     -1.89079410     -2.54731623
  H       12.10470268     -3.33652756     -2.78750706
  H       10.61554967     -3.11830724     -3.72023993



