%Mem=256MB 
%NProc=48 

#P HF/6-31G* SCF(Conver=6) NoSymm Test 
   Pop=mk IOp(6/33=2) GFInput GFPrint 

MEP - Input generated by R.E.D.-III.x MOLECULE 

0 1 
  O        0.00000000      0.00000000      0.00000000
  H       -0.47331351      0.45405542     -0.70993750
  O       -3.27054681      5.86668355      0.00000000
  H       -2.97150648      6.55183168      0.61426270
  C        4.18264848      1.13716132     -0.37503236
  C        2.79578377      0.58186124      0.05396298
  H        2.34991828      0.16705872     -0.86132036
  C        1.80285753      1.63318813      0.56435183
  H        2.19579955      2.08093575      1.48874572
  C        1.59938587      2.74714832     -0.49340839
  H        1.06778682      2.27135794     -1.33435026
  C        4.89235737     -0.20057203     -0.78630976
  H        4.45042563     -0.49470164     -1.75161664
  C        3.91263494      2.14920961     -1.50769286
  H        3.48516272      1.60970468     -2.36511549
  H        4.83443282      2.61933267     -1.86449451
  C        0.65649948      3.89210785      0.01829185
  C        3.12321411     -0.62008183      0.94982023
  H        2.29904990     -1.33781702      0.98723325
  H        3.31949652     -0.29953804      1.98102642
  C        2.94219371      3.26260296     -1.06259576
  H        3.44827329      3.88258250     -0.31536763
  H        2.75107399      3.91987642     -1.91877692
  C        4.40032676     -1.21917519      0.29949025
  H        5.18280284     -1.38424198      1.05004225
  H        4.19053126     -2.19532953     -0.14742691
  C        0.45036076      0.99631855      0.94822865
  H        0.58601589      0.42405358      1.87315921
  C        6.43175228     -0.22595436     -0.97414678
  H        6.89200059     -0.00000000     -0.00000000
  C        4.94223784      1.80786296      0.79260388
  H        4.37022086      2.61860843      1.25112663
  H        5.18167197      1.09419912      1.58670867
  H        5.88797586      2.23722981      0.44573003
  C       -0.56126444      3.29993221      0.73988908
  C        0.14889382      4.70791908     -1.21087349
  H       -0.20197464      3.99840553     -1.97319188
  H        0.98898685      5.25065677     -1.65725775
  C       -0.62642025      2.02236794      1.14958967
  H       -1.53368223      1.66576230      1.63643773
  C        1.39179974      4.84117799      1.00357173
  H        2.15716811      5.43165598      0.49105933
  H        0.70187221      5.54692130      1.47277491
  H        1.87453105      4.27939049      1.80893972
  C       -1.72729640      4.23664446      0.99780222
  H       -2.57094766      3.68287258      1.42124814
  H       -1.43937701      4.99271910      1.74569492
  C       -0.98980435      5.69463586     -0.91043190
  H       -0.64114105      6.49114462     -0.23657205
  H       -1.31386498      6.18587883     -1.83489822
  C        6.90329733     -1.64508998     -1.38401886
  H        6.37261439     -2.38873840     -0.78206407
  H        6.60263132     -1.82822990     -2.42749984
  C       -2.17923457      4.98231635     -0.26707521
  H       -2.59138409      4.25685695     -0.97931732
  C        6.93420352      0.81402472     -1.99182049
  H        6.41354551      0.70400880     -2.95135884
  H        8.00540127      0.69835213     -2.18263927
  H        6.78261930      1.83909910     -1.64598220
  C        8.41379291     -1.89332496     -1.23923149
  H        8.97302296     -1.13750570     -1.80370306
  H        8.70103253     -1.75254128     -0.18827701
  C        8.88120074     -3.27610363     -1.73139718
  H        9.97922322     -3.31498581     -1.67353517
  H        8.63187963     -3.36783824     -2.79851859
  C        8.31933611     -4.50989698     -0.99300543
  H        7.22277159     -4.48808027     -1.06755854
  C        8.69085205     -4.52081572      0.49829584
  H        9.78109464     -4.51955455      0.62776241
  H        8.29918423     -5.41715737      0.99254358
  H        8.29159404     -3.65119924      1.03025314
  C        8.79984068     -5.79980658     -1.67723287
  H        9.89337988     -5.88323900     -1.63073071
  H        8.37829333     -6.68826072     -1.19332405
  H        8.50929087     -5.82366607     -2.73385879



