%Mem=256MB 
%NProc=48 

#P HF/6-31G* SCF(Conver=6) NoSymm Test 
   Pop=mk IOp(6/33=2) GFInput GFPrint 

MEP - Input generated by R.E.D.-III.x MOLECULE 

0 1 
  O        5.51772145      3.83023167      0.00000000
  H        5.00283006      3.47011798      0.73442556
  O        0.00000000      0.00000000      0.00000000
  H       -0.13836859     -0.59469746     -0.75057885
  C        8.72296222      1.00030786     -0.77154941
  C        7.70619091      2.17024067     -0.78716711
  H        7.63726771      2.51606610      0.25344288
  C        6.28126495      1.76833402     -1.18317619
  H        6.28025007      1.41346468     -2.22388231
  C        5.76434468      0.63608301     -0.25512206
  H        5.63580506      1.09958957      0.73717259
  C       10.00573139      1.78784725     -0.35716596
  H        9.79676594      2.10123551      0.67569876
  C        8.22260577     -0.02284287      0.26221636
  H        8.23077893      0.44680641      1.25638982
  H        8.89001773     -0.89317340      0.32065431
  C        4.34158537      0.12596733     -0.67724722
  C        8.42350189      3.29142251     -1.56241898
  H        8.06291706      4.27990478     -1.26463312
  H        8.24997265      3.19844184     -2.64219776
  C        6.79521244     -0.50685494     -0.06773937
  H        6.83797208     -1.12119245     -0.97258650
  H        6.45744935     -1.17476771      0.73287769
  C        9.93382671      3.08151500     -1.22679185
  H       10.51456500      2.97603191     -2.14722281
  H       10.35407573      3.93979368     -0.69243964
  C        5.31926907      2.97435171     -1.15003121
  H        5.55492429      3.62849398     -1.99748518
  C       11.37188059      1.03789362     -0.27880436
  H       11.13861308      0.00000000      0.00000000
  C        8.88199272      0.33090406     -2.15423341
  H        7.93644493     -0.06382927     -2.53475082
  H        9.26491915      1.02533849     -2.90723427
  H        9.57887191     -0.51148270     -2.09404842
  C        3.42552052      1.31111010     -1.01163889
  C        3.71511709     -0.65516989      0.51930394
  H        3.84173162     -0.05100494      1.42852092
  H        4.27792213     -1.58046338      0.68211629
  C        3.87946376      2.55718988     -1.22537444
  H        3.16656932      3.35382636     -1.43619073
  C        4.41180306     -0.80078166     -1.92170944
  H        4.89792801     -1.75154159     -1.68327373
  H        3.41574517     -1.03666017     -2.30447888
  H        4.96621494     -0.32740385     -2.73758034
  C        1.93880249      1.02172365     -1.10963730
  H        1.38064489      1.95277350     -1.24854393
  H        1.73805028      0.39885255     -1.99596448
  C        2.22361355     -0.99034735      0.36680613
  H        2.06995341     -1.68989813     -0.46809397
  H        1.85846852     -1.49406313      1.26897757
  C       12.18501024      1.00329097     -1.59509153
  H       11.54803292      0.65445323     -2.41420424
  H       12.47167716      2.03024978     -1.85680682
  C        1.39876290      0.27190589      0.11767300
  H        1.47087578      0.92696497      0.99467601
  C       12.21810131      1.62997684      0.86745940
  H       12.48540980      2.67374743      0.65904779
  H       13.14846006      1.07559518      1.02316639
  H       11.66486113      1.61144364      1.81277554
  C       13.48022549      0.16199404     -1.57484736
  H       13.96572835      0.27349414     -2.55281733
  H       14.18481493      0.59589295     -0.85499059
  C       13.33118260     -1.33611370     -1.24995893
  H       12.90967066     -1.44935993     -0.24196639
  H       14.33790189     -1.77732762     -1.20123513
  C       12.48755583     -2.17911115     -2.22939801
  H       11.48032027     -1.74210298     -2.28130027
  C       12.33954592     -3.61553325     -1.70222712
  H       13.31780259     -4.10830742     -1.63183542
  H       11.71019090     -4.22084483     -2.36469084
  H       11.88789804     -3.63068216     -0.70355005
  C       13.06898594     -2.18553367     -3.65223306
  H       14.08871045     -2.59226174     -3.65369363
  H       12.46267238     -2.80844827     -4.31970552
  H       13.11022256     -1.18168764     -4.08687251



