%Mem=256MB 
%NProc=48 

#P HF/6-31G* SCF(Conver=6) NoSymm Test 
   Pop=mk IOp(6/33=2) GFInput GFPrint 

MEP - Input generated by R.E.D.-III.x MOLECULE 

0 1 
  O        6.75440589      0.90020252      0.00000000
  H        7.10628179     -0.00000000      0.00000000
  O        9.63497061     -2.66205309      4.91444085
  H        9.37735987     -2.46571655      5.82617748
  C        2.50904889      0.57385514      0.86174302
  C        3.95967550      1.03795792      0.57642898
  H        4.30658481      0.42204636     -0.26495720
  C        4.94733354      0.77207074      1.71785663
  H        4.65412742      1.36463318      2.59647374
  C        4.94350713     -0.73492541      2.09152369
  H        5.39700253     -1.25594925      1.23193722
  C        1.83208671      1.01820756     -0.47268753
  H        2.26085222      0.34198671     -1.22634224
  C        2.55498715     -0.94652722      1.09217661
  H        2.88992821     -1.43364875      0.16511401
  H        1.55759999     -1.34879917      1.31543031
  C        5.87229872     -1.04388980      3.31816451
  C        3.80340882      2.46588667      0.02137144
  H        4.64100553      2.74016050     -0.62589878
  H        3.77015309      3.20365026      0.83336107
  C        3.51375716     -1.31550489      2.24336979
  H        3.07235276     -0.97539404      3.18534090
  H        3.56999253     -2.40763172      2.31588913
  C        2.44450501      2.42792275     -0.74627255
  H        1.78431069      3.22492666     -0.39279617
  H        2.58287841      2.59432633     -1.81953458
  C        6.37447017      1.23399525      1.35600085
  H        6.39601766      2.32994117      1.36372078
  C        0.28936414      0.86609518     -0.61520165
  H        0.00000000      0.00000000      0.00000000
  C        1.88260113      1.28022313      2.08422709
  H        2.44069518      1.08684710      3.00388680
  H        1.84225500      2.36575020      1.95785015
  H        0.85898527      0.92650246      2.24944016
  C        7.20811573     -0.30142281      3.17797637
  C        6.16380392     -2.57627148      3.35108093
  H        6.45415842     -2.89291132      2.33955282
  H        5.24113780     -3.11535401      3.59080398
  C        7.40427864      0.70678337      2.31223234
  H        8.38744081      1.17277694      2.25274705
  C        5.21449124     -0.61195856      4.65733592
  H        4.35478757     -1.24343318      4.90063768
  H        5.91513016     -0.68786620      5.49256233
  H        4.87550159      0.42749932      4.61534184
  C        8.33827936     -0.74636930      4.08818919
  H        9.26246684     -0.22103471      3.82818530
  H        8.10517062     -0.47651037      5.13065518
  C        7.26940308     -3.00681768      4.32702313
  H        6.96389396     -2.81061027      5.36541878
  H        7.43864935     -4.08673635      4.24887836
  C       -0.55100431      2.07161753     -0.12948505
  H       -0.11770539      2.49463241      0.78307349
  H       -0.49844381      2.86641493     -0.88516437
  C        8.57419270     -2.26374586      4.04242866
  H        8.93289465     -2.53782981      3.04261421
  C       -0.06694496      0.51913038     -2.07551599
  H        0.25280940      1.31935855     -2.75470724
  H       -1.14392726      0.37898926     -2.21264366
  H        0.42818670     -0.40475187     -2.39441972
  C       -2.02202301      1.72786472      0.16202963
  H       -2.51318883      1.35560205     -0.74500733
  H       -2.04904341      0.89395224      0.87776153
  C       -2.84153309      2.88834637      0.75570074
  H       -2.36744955      3.20547507      1.69597103
  H       -3.83702262      2.50963976      1.03157226
  C       -3.03295382      4.13365496     -0.13636567
  H       -2.04000327      4.52585007     -0.39889839
  C       -3.77089330      5.23452642      0.64240954
  H       -4.77711597      4.90288241      0.92958296
  H       -3.88049000      6.14352750      0.03998296
  H       -3.23485824      5.50283561      1.56010976
  C       -3.77306690      3.81071902     -1.44407820
  H       -4.76544415      3.38973878     -1.23590676
  H       -3.91619871      4.71529843     -2.04603734
  H       -3.22757809      3.08892429     -2.06045690



