%Mem=256MB 
%NProc=48 

#P HF/6-31G* SCF(Conver=6) NoSymm Test 
   Pop=mk IOp(6/33=2) GFInput GFPrint 

MEP - Input generated by R.E.D.-III.x MOLECULE 

0 1 
  O        0.00000000      0.00000000      0.00000000
  H       -0.23027286      0.58484210     -0.73423009
  O       -2.39199512      6.27596218      0.00000000
  H       -2.16413522      6.84771376      0.74656148
  C        4.25093796      0.52857689      0.72291714
  C        2.75165212      0.13807912      0.75148687
  H        2.49034501     -0.10660245     -0.28752438
  C        1.80750288      1.27486194      1.15818118
  H        2.02046616      1.56919870      2.19600399
  C        2.01046925      2.49940085      0.22557016
  H        1.63317878      2.18689256     -0.76234274
  C        4.86434467     -0.84285730      0.30023718
  H        4.53502484     -0.97187930     -0.74094439
  C        4.40813106      1.65639019     -0.31166385
  H        4.14345828      1.26377658     -1.30399131
  H        5.44988984      1.99837203     -0.37708518
  C        1.12795794      3.72476630      0.65292944
  C        2.71723989     -1.19454058      1.52235756
  H        1.84888970     -1.79825858      1.24453451
  H        2.65614619     -1.02312654      2.60476169
  C        3.50452732      2.86135338      0.02330509
  H        3.89415443      3.34773965      0.92295511
  H        3.59473683      3.60105414     -0.78035030
  C        4.06664242     -1.88401828      1.14724005
  H        4.61479998     -2.16868415      2.04982700
  H        3.90334383     -2.80690054      0.58130303
  C        0.33210567      0.82314735      1.14311778
  H        0.16654798      0.15365501      1.99516660
  C        6.41319909     -0.99018865      0.26134311
  H        6.81773639      0.00000000      0.00000000
  C        4.77680018      0.99052833      2.09985897
  H        4.25214526      1.87623638      2.46736298
  H        4.66826173      0.21594233      2.86420236
  H        5.83932804      1.24980743      2.03753472
  C       -0.29373285      3.26458426      1.00249028
  C        1.04043229      4.71979474     -0.54569008
  H        0.79578869      4.14693256     -1.45105494
  H        2.02563918      5.16567679     -0.71891452
  C       -0.62002262      1.98051608      1.22408765
  H       -1.65597971      1.72599433      1.44613124
  C        1.72075858      4.45315961      1.89006659
  H        2.65571492      4.96409252      1.64137574
  H        1.03463135      5.21001723      2.27815798
  H        1.91988493      3.75109343      2.70527223
  C       -1.35664536      4.34292539      1.10710921
  H       -2.34149374      3.88991885      1.25729512
  H       -1.16207145      4.97364137      1.98925267
  C       -0.00061707      5.83854326     -0.38744091
  H        0.27490421      6.50593950      0.44243339
  H       -0.02641143      6.45707391     -1.29172361
  C        7.08307591     -1.42119478      1.58954322
  H        6.56223571     -0.97121470      2.43884451
  H        6.97362048     -2.50886608      1.71027854
  C       -1.39128187      5.26223621     -0.12324505
  H       -1.70916100      4.67732204     -0.99517954
  C        6.81337273     -1.95473221     -0.87424822
  H        6.36919721     -2.94543440     -0.71650045
  H        7.89841527     -2.08599816     -0.93841870
  H        6.46822170     -1.58650427     -1.84673025
  C        8.57503012     -1.05576598      1.67438090
  H        9.09274539     -1.41543901      0.77635350
  H        8.67822012      0.03783754      1.65702505
  C        9.30780717     -1.63486187      2.89841818
  H       10.37799844     -1.39395511      2.81368676
  H        9.24085117     -2.73164094      2.85601420
  C        8.82070944     -1.17130425      4.28789445
  H        7.75371861     -1.41982065      4.38024388
  C        8.97110619      0.34545016      4.48589817
  H       10.02112140      0.64888999      4.38240749
  H        8.63637481      0.64490768      5.48563724
  H        8.38621163      0.91747356      3.75838835
  C        9.56762170     -1.93489407      5.39327889
  H       10.64423560     -1.72428818      5.35500125
  H        9.20856582     -1.64800584      6.38829736
  H        9.43697597     -3.01812727      5.28884630



