%Mem=256MB 
%NProc=48 

#P HF/6-31G* SCF(Conver=6) NoSymm Test 
   Pop=chelpg IOp(6/33=2) GFInput GFPrint 

MEP - Input generated by R.E.D.-III.x MOLECULE 

0 1 
  C        0.99848241     -0.89141821     -1.69242265
  H        1.15334992      0.07686008     -2.18394512
  C        2.21123105     -1.79175645     -1.96783785
  H        2.35214041     -1.90399660     -3.04749937
  H        1.97687437     -2.79394509     -1.57344560
  C        3.48456538     -1.28079094     -1.32122930
  C        3.42339397     -0.91601770      0.16621384
  C        2.12780099     -0.08345577      0.41903412
  H        2.27686468      0.92142204      0.00000000
  H        1.98530817      0.04845001      1.49656816
  C        0.84507165     -0.67192273     -0.18818263
  H        0.59741813     -1.63115509      0.29036789
  H        0.00000000      0.00000000      0.00000000
  C        4.60938656     -1.17233069     -2.04108727
  H        4.59353820     -1.41837849     -3.10340389
  C        5.94634970     -0.74418407     -1.51147310
  H        6.24007911      0.20633746     -1.98593628
  C        6.01015490     -0.60300416      0.01697762
  H        6.16711282     -1.60947352      0.41983923
  C        4.66440551     -0.03536160      0.54767676
  H        4.51416319      0.92489445      0.02666924
  C        4.74499732      0.28763446      2.05695870
  H        4.78024546     -0.64331263      2.63315342
  H        3.83142732      0.80367906      2.37199989
  C        5.95378892      1.15858190      2.45078937
  H        5.85043085      2.15383262      1.99450661
  H        5.93129292      1.31061210      3.53430567
  C        7.28688932      0.53883599      1.98581265
  C        7.16395855      0.31921129      0.44950248
  H        6.92098723      1.31472375      0.03738983
  C        8.59856789      0.00000000      0.00000000
  H        8.76136269      0.20759837     -1.06066784
  H        8.81984517     -1.06303547      0.13964629
  C        9.47633775      0.88923177      0.92095898
  H       10.28319560      0.30160699      1.37531184
  H        9.96137082      1.68903648      0.35305907
  C        8.54114243      1.48031967      2.03001136
  H        8.19102311      2.46792865      1.68902358
  C        7.57547595     -0.77617798      2.74614521
  H        6.81321946     -1.53831070      2.56563032
  H        8.53730231     -1.21109705      2.45945215
  H        7.60620439     -0.59913238      3.82628732
  C        9.28289481      1.71131587      3.37260160
  H        9.69966861      0.74512908      3.69602099
  C        8.36832243      2.23271746      4.49509753
  H        7.86411907      3.15912957      4.19175774
  H        8.93968258      2.44842783      5.40280422
  H        7.59799337      1.50899567      4.76997119
  C        3.37069639     -2.22880871      0.99233710
  H        3.18027348     -2.02521373      2.05060238
  H        2.57231933     -2.88938882      0.64326399
  H        4.30897676     -2.78495224      0.91026381
  O        6.99271804     -1.59917959     -2.03838788
  O        6.82446179     -2.94526318     -1.50366714
  H        6.42130894     -3.39719970     -2.26297745
  O       -0.19098473     -1.40447641     -2.29809215
  H       -0.40721394     -2.25315542     -1.88676845
  C       10.47803612      2.67475532      3.16251146
  H       11.06181126      2.34260244      2.29611225
  H       10.08160289      3.66643668      2.90000507
  C       11.44122675      2.79194407      4.35622809
  H       10.94276247      3.26592866      5.20955515
  H       11.70908157      1.77941373      4.69023565
  C       12.74556113      3.54728828      4.04036606
  H       13.27144937      3.01467944      3.23478482
  H       13.40459768      3.49377907      4.91972893
  C       12.60665907      5.02977326      3.63302560
  H       11.96246134      5.08311635      2.74367084
  C       11.96000708      5.88331455      4.73553555
  H       12.55471252      5.84394387      5.65756222
  H       11.89322180      6.93337233      4.42874403
  H       10.94686262      5.54666301      4.97815405
  C       13.97835163      5.60319923      3.24262239
  H       14.66867834      5.58096557      4.09578409
  H       13.89506382      6.64427913      2.91019583
  H       14.43567540      5.02707443      2.42999807



