%Mem=256MB 
%NProc=48 

#P HF/6-31G* SCF(Conver=6) NoSymm Test 
   Pop=chelpg IOp(6/33=2) GFInput GFPrint 

MEP - Input generated by R.E.D.-III.x MOLECULE 

0 1 
  C        7.51193397      2.21536106      0.07052653
  H        7.34545059      2.18629417      1.15435050
  C        6.82071614      1.00601399     -0.57424369
  H        7.20055406      0.08053855     -0.13085189
  H        7.10697904      0.98678722     -1.63859008
  C        5.30908928      1.06163046     -0.45617453
  C        4.61953310      2.35759982     -0.89430823
  C        5.40507418      3.56482064     -0.29362391
  H        5.19973943      3.60634390      0.78516378
  H        5.02212540      4.49856670     -0.71879224
  C        6.92777089      3.51099240     -0.49172334
  H        7.17967639      3.58316956     -1.56015402
  H        7.39934264      4.36943635      0.00000000
  C        4.63156638     -0.00000000     -0.00000000
  H        5.17097869     -0.89333314      0.30678317
  C        3.13784621     -0.10213922      0.09644112
  H        2.83287174     -0.20929107      1.14905774
  C        2.37635967      1.06244541     -0.55777407
  H        2.32096771      0.84190740     -1.63191056
  C        3.15389644      2.39131386     -0.34054832
  H        3.25376148      2.50377121      0.75140348
  C        2.33751584      3.60481417     -0.84159326
  H        2.29854376      3.59712129     -1.93621020
  H        2.85248103      4.53102587     -0.56463016
  C        0.89801691      3.66810383     -0.29529154
  H        0.92728685      3.83158309      0.79173856
  H        0.40050409      4.54204956     -0.72763401
  C        0.11711226      2.36978755     -0.57867970
  C        0.95620305      1.20418221      0.02066866
  H        1.09667754      1.47117662      1.08217552
  C        0.00000000      0.00000000      0.00000000
  H        0.26695444     -0.75233380      0.74876157
  H        0.03051879     -0.50370509     -0.97131129
  C       -1.39489880      0.62830724      0.26897785
  H       -2.11650232      0.30264900     -0.48944434
  H       -1.80149979      0.31121479      1.23472259
  C       -1.21900943      2.18090265      0.22012258
  H       -1.00541590      2.53121622      1.24086141
  C       -0.13112928      2.20129415     -2.09493238
  H        0.79895671      2.13043000     -2.66442324
  H       -0.71357343      1.30244604     -2.31813765
  H       -0.68694998      3.05751781     -2.49144888
  C       -2.50159427      2.90707869     -0.25660222
  H       -2.72152007      2.54853276     -1.27279394
  C       -2.35818333      4.43877827     -0.33459757
  H       -1.97100099      4.86252108      0.59873839
  H       -3.33118793      4.90429674     -0.53140695
  H       -1.68440716      4.74618247     -1.13833399
  C        4.65104753      2.43468982     -2.44426983
  H        4.31012335      3.41108261     -2.80254734
  H        5.66233266      2.28495784     -2.83117874
  H        4.01893999      1.66231098     -2.89242695
  O        2.68077348     -1.28746029     -0.60278603
  O        3.15216180     -2.45247456      0.13938234
  H        2.30460173     -2.82068642      0.43870570
  O        8.93433289      2.15142932     -0.06618826
  H        9.15569734      2.16653893     -1.00796994
  C       -3.74202965      2.52356016      0.59457197
  H       -4.61863081      3.00254460      0.13538068
  H       -3.91879696      1.44368698      0.51512653
  C       -3.70306489      2.90828107      2.08271666
  H       -2.86368691      2.40259701      2.57977537
  H       -3.51613313      3.98411205      2.18022833
  C       -5.00356706      2.54038471      2.81355891
  H       -5.21286086      1.47504104      2.63942010
  H       -5.84296298      3.09122980      2.36196154
  C       -5.00428770      2.79331325      4.33498694
  H       -4.13866829      2.26178680      4.76019579
  C       -4.86069125      4.28318341      4.68606541
  H       -5.68855057      4.86414087      4.25885478
  H       -4.87689733      4.43276113      5.77166559
  H       -3.92503362      4.70821400      4.30931086
  C       -6.27263594      2.20992808      4.97782931
  H       -7.17133221      2.70427453      4.58706440
  H       -6.26642845      2.34542480      6.06538284
  H       -6.36771175      1.13729150      4.77354844



