%Mem=256MB 
%NProc=48 

#P HF/6-31G* SCF(Conver=6) NoSymm Test 
   Pop=chelpg IOp(6/33=2) GFInput GFPrint 

MEP - Input generated by R.E.D.-III.x MOLECULE 

0 1 
  C       -1.00125381      1.97492726      1.69844602
  H       -0.99266147      0.99247758      2.18615787
  C        0.33062216      2.68483788      1.98012199
  H        0.48357816      2.77109763      3.06052332
  H        0.24825768      3.71205571      1.58914153
  C        1.51596710      1.99309587      1.33437248
  C        1.40594296      1.64845621     -0.15514409
  C        0.00209764      1.01772714     -0.41451367
  H        0.00000000      0.00000000      0.00000000
  H       -0.15574384      0.91324903     -1.49291222
  C       -1.18127318      1.78652464      0.19296848
  H       -1.28336065      2.77373570     -0.28178904
  H       -2.11572888      1.24745567      0.00000000
  C        2.60946658      1.71508580      2.05693436
  H        2.62660641      1.95581013      3.12043935
  C        3.86904772      1.09410944      1.52897391
  H        4.01269544      0.10542010      1.99463018
  C        3.91830695      0.95991079     -0.00059673
  H        4.21840792      1.93808843     -0.39105995
  C        2.50518078      0.59652766     -0.53906252
  H        2.21473112     -0.33344619     -0.02237106
  C        2.53659577      0.26943004     -2.05058155
  H        2.70925357      1.18544951     -2.62561780
  H        1.55625013     -0.10500948     -2.36470883
  C        3.60315179     -0.77159156     -2.44210537
  H        3.34882764     -1.73872888     -1.98600630
  H        3.57004100     -0.91817623     -3.52818743
  C        5.00925058     -0.35190753     -1.97604795
  C        4.92935866     -0.11468208     -0.43786012
  H        4.54976612     -1.06325728     -0.01976067
  C        6.40261711      0.00000000     -0.00000000
  H        6.54302210     -0.24890548      1.05493468
  H        6.76199232      1.02692272     -0.12137967
  C        7.14997730     -0.97860103     -0.94949435
  H        7.99171578     -0.47666878     -1.43768904
  H        7.57579527     -1.83010756     -0.40695561
  C        6.10335205     -1.47533903     -1.99583762
  H        5.60706574     -2.34208424     -1.53733493
  C        5.46004152      0.92236337     -2.72808160
  H        4.86365280      1.79520111     -2.45103354
  H        6.50434397      1.17326791     -2.52752762
  H        5.35329599      0.79131794     -3.80874775
  C        6.75985572     -2.03507573     -3.29080203
  H        7.51359712     -2.74141287     -2.90979031
  C        7.54017554     -1.03263815     -4.16520343
  H        6.87545778     -0.40851696     -4.76968183
  H        8.18920876     -1.57869530     -4.85938325
  H        8.18005249     -0.36810572     -3.57759784
  C        1.55019151      2.95836437     -0.97488474
  H        1.33614724      2.78960874     -2.03474297
  H        0.85664474      3.72798174     -0.62521186
  H        2.55982604      3.36979868     -0.88709769
  O        5.03022617      1.77488326      2.06840242
  O        5.07132954      3.13600332      1.54660338
  H        4.74368835      3.63726819      2.31124555
  O       -2.10342669      2.65596671      2.30366314
  H       -2.19064251      3.52881903      1.89534209
  C        5.80811900     -2.85286280     -4.19790478
  H        5.02957097     -2.18888141     -4.59461421
  H        6.38672653     -3.17416367     -5.07465589
  C        5.12707503     -4.08955624     -3.57952076
  H        4.44956569     -3.77769019     -2.77575210
  H        4.47961970     -4.53555452     -4.34548678
  C        6.06957019     -5.17066972     -3.01628126
  H        5.45267991     -5.97814592     -2.59459015
  H        6.63284280     -4.75550912     -2.16966330
  C        7.07328968     -5.79871325     -4.00630499
  H        7.70136590     -4.99493817     -4.41703940
  C        8.00275656     -6.77734901     -3.27049660
  H        7.43185073     -7.61070255     -2.84104329
  H        8.75111799     -7.20258858     -3.94898013
  H        8.53603037     -6.28255851     -2.45059739
  C        6.37680735     -6.49927114     -5.18385511
  H        5.71611974     -7.29918660     -4.82474948
  H        7.11124574     -6.95385228     -5.85843649
  H        5.77003584     -5.80712789     -5.77655775



