%Mem=256MB 
%NProc=48 

#P HF/6-31G* SCF(Conver=6) NoSymm Test 
   Pop=chelpg IOp(6/33=2) GFInput GFPrint 

MEP - Input generated by R.E.D.-III.x MOLECULE 

0 1 
  C        1.75854805     -1.24906477     -0.05774450
  H        1.87147690     -1.13854613     -1.14318300
  C        3.15085901     -1.30348906      0.58701612
  H        3.72778541     -2.12706367      0.15459952
  H        3.01306230     -1.53998070      1.65468174
  C        3.91404752      0.00048610      0.45384658
  C        3.19035057      1.28676295      0.86772579
  C        1.74834386      1.25674771      0.27141283
  H        1.81922689      1.43751087     -0.81020391
  H        1.16610605      2.08589223      0.68649298
  C        0.97871012     -0.05485775      0.49005795
  H        0.78598668     -0.21403729      1.56146907
  H        0.00000000      0.00000000      0.00000000
  C        5.17466222      0.00000000      0.00000000
  H        5.63481185     -0.93954547     -0.30789846
  C        6.05885516      1.20610936     -0.12000656
  H        6.28577761      1.38920294     -1.18300232
  C        5.48370221      2.48106027      0.51538414
  H        5.69092421      2.41665531      1.58882006
  C        3.94643954      2.53210680      0.28487164
  H        3.80256256      2.47822757     -0.80718096
  C        3.34473570      3.88161598      0.74252545
  H        3.35659896      3.94212920      1.83603652
  H        2.29083827      3.93139289      0.44793937
  C        4.06894409      5.11480913      0.16866531
  H        3.93061080      5.14044706     -0.92141190
  H        3.59374363      6.01911059      0.56688765
  C        5.57609523      5.08946897      0.48221171
  C        6.13601201      3.74493512     -0.07222708
  H        5.86986359      3.74238921     -1.14360520
  C        7.66571813      3.91856219      0.00000000
  H        8.19077206      3.27587785     -0.71121719
  H        8.03843195      3.64374780      0.99197546
  C        7.88230272      5.43104492     -0.28850276
  H        8.50222976      5.88832882      0.48955611
  H        8.40984433      5.59577275     -1.23470421
  C        6.46577394      6.08507384     -0.34046121
  H        6.11652292      5.96537371     -1.37557844
  C        5.80395143      5.21801491      2.00670864
  H        5.44836912      4.33930535      2.55050234
  H        6.85994116      5.34250388      2.25796708
  H        5.26506919      6.08187703      2.40640227
  C        6.49992141      7.62359919     -0.11022484
  H        7.27581496      7.96912722     -0.81080158
  C        6.95547722      8.10958749      1.28068933
  H        6.16461673      8.01303528      2.03034823
  H        7.22285191      9.17126582      1.22913312
  H        7.83340219      7.57158227      1.64963964
  C        3.11459729      1.33152680      2.41720939
  H        2.48259952      2.15630096      2.76060313
  H        2.68983651      0.40980137      2.82413647
  H        4.10861228      1.45078776      2.85772917
  O        7.39511911      0.89953311      0.35241400
  O        7.34823988      0.64728720      1.78795775
  H        7.39830240     -0.32246439      1.80715327
  O        1.05422849     -2.48399252      0.09644676
  H        0.89115904     -2.63244867      1.03855768
  C        5.19637455      8.36508374     -0.49542623
  H        4.38776154      8.04312139      0.17305859
  H        5.34717941      9.43015809     -0.27274280
  C        4.70853485      8.23263558     -1.95148264
  H        4.43755547      7.19065989     -2.15928118
  H        3.77254002      8.79819686     -2.04566832
  C        5.69535468      8.69516706     -3.04079135
  H        5.22669869      8.52801151     -4.02202293
  H        6.58375129      8.04953702     -3.02319440
  C        6.16160054     10.16493496     -2.97419135
  H        6.64449171     10.32973757     -2.00007991
  C        7.21438089     10.43748591     -4.06066277
  H        6.78846215     10.29492628     -5.06221742
  H        7.58961371     11.46562833     -4.00289688
  H        8.07195973      9.76158085     -3.96503743
  C        4.99422765     11.15759217     -3.09404730
  H        4.46138399     11.01838876     -4.04379977
  H        5.35564630     12.19183289     -3.06529840
  H        4.26710823     11.04065766     -2.28401394



