%Mem=256MB 
%NProc=48 

#P HF/6-31G* SCF(Conver=6) NoSymm Test 
   Pop=chelpg IOp(6/33=2) GFInput GFPrint 

MEP - Input generated by R.E.D.-III.x MOLECULE 

0 1 
  C        7.50987482      2.21684179      0.07472397
  H        7.34012183      2.18956611      1.15808392
  C        6.82082838      1.00625451     -0.56995197
  H        7.19984902      0.08163893     -0.12406515
  H        7.11001751      0.98539330     -1.63344704
  C        5.30891863      1.06145511     -0.45574893
  C        4.61980348      2.35644719     -0.89733936
  C        5.40381228      3.56530091     -0.29787082
  H        5.19568319      3.60974920      0.78028083
  H        5.02185114      4.49791564     -0.72646533
  C        6.92707627      3.51128361     -0.49152414
  H        7.18211127      3.58166553     -1.55933996
  H        7.39702365      4.37073631      0.00000000
  C        4.63077641     -0.00000000      0.00000000
  H        5.16993088     -0.89274659      0.30895210
  C        3.13698737     -0.10261789      0.09383514
  H        2.83059636     -0.21004962      1.14600332
  C        2.37598356      1.06169706     -0.56135929
  H        2.32034793      0.84006420     -1.63530649
  C        3.15337861      2.39075555     -0.34546440
  H        3.25197541      2.50502983      0.74639416
  C        2.33703086      3.60302117     -0.84932053
  H        2.29760792      3.59236907     -1.94393702
  H        2.85224091      4.52989959     -0.57508573
  C        0.89791666      3.66782072     -0.30225661
  H        0.92783670      3.83363966      0.78438759
  H        0.40034552      4.54096119     -0.73615197
  C        0.11633729      2.36914044     -0.58244533
  C        0.95612103      1.20427877      0.01755460
  H        1.09753001      1.47284387      1.07854498
  C        0.00000000      0.00000000      0.00000000
  H        0.26777285     -0.75084113      0.74999426
  H        0.02945849     -0.50571671     -0.97030190
  C       -1.39458995      0.62878555      0.26946479
  H       -2.11671617      0.30274905     -0.48831741
  H       -1.80066142      0.31234537      1.23564000
  C       -1.21837108      2.18125550      0.21946813
  H       -1.00099899      2.53166812      1.23924929
  C       -0.13405194      2.19839507     -2.09798505
  H        0.79546373      2.12705082     -2.66834529
  H       -0.71661190      1.29906122     -2.31883814
  H       -0.69060553      3.05390386     -2.49500019
  C       -2.50138644      2.90796311     -0.25535362
  H       -2.71898513      2.55301324     -1.27327345
  C       -2.35902106      4.44006609     -0.32687429
  H       -1.97854338      4.85994177      0.61099209
  H       -3.33121484      4.90531675     -0.52833170
  H       -1.68062778      4.75168203     -1.12502657
  C        4.65339625      2.43034808     -2.44737432
  H        4.30987263      3.40490075     -2.80816432
  H        5.66566131      2.28292987     -2.83272967
  H        4.02437171      1.65493583     -2.89457893
  O        2.68103785     -1.28790257     -0.60625037
  O        3.15141132     -2.45300875      0.13637065
  H        2.30353254     -2.82066662      0.43548727
  O        8.93267836      2.15304367     -0.05769189
  H        9.15679604      2.16648087     -0.99884919
  C       -3.74575268      2.52204293      0.59073087
  H       -4.61731297      2.99118753      0.11575142
  H       -3.91448879      1.44001282      0.51815975
  C       -3.70881580      2.91297392      2.07772713
  H       -2.81831024      2.47682012      2.54795532
  H       -3.59742520      3.99938237      2.17879944
  C       -4.93584739      2.43985126      2.88062818
  H       -4.76444844      2.66016691      3.94484149
  H       -4.99999858      1.34456679      2.80539983
  C       -6.30353901      3.03554897      2.48346705
  H       -6.48644942      2.80600559      1.42405599
  C       -7.42612503      2.37187033      3.29733590
  H       -7.30082424      2.56919498      4.36983804
  H       -8.41048197      2.75318761      3.00265459
  H       -7.43191461      1.28471662      3.15777957
  C       -6.34869224      4.56278944      2.64998165
  H       -6.14962779      4.84665453      3.69168524
  H       -7.33575634      4.95649038      2.38200066
  H       -5.61050406      5.06972735      2.02019233



