%Mem=256MB 
%NProc=48 

#P HF/6-31G* SCF(Conver=6) NoSymm Test 
   Pop=chelpg IOp(6/33=2) GFInput GFPrint 

MEP - Input generated by R.E.D.-III.x MOLECULE 

0 1 
  C        7.51765873      2.21481773      0.07162454
  H        7.35337263      2.18512943      1.15572355
  C        6.82336358      1.00653919     -0.57277068
  H        7.20548599      0.08053830     -0.13160830
  H        7.10664488      0.99022555     -1.63780314
  C        5.31231140      1.06189509     -0.45362631
  C        4.61816019      2.35987623     -0.88113934
  C        5.41120149      3.56488901     -0.28538961
  H        5.21070652      3.60913366      0.79415805
  H        5.02711710      4.49810761     -0.71012516
  C        6.93300719      3.51009486     -0.48946865
  H        7.18095201      3.58100744     -1.55901150
  H        7.40681560      4.36856570      0.00000000
  C        4.63280662     -0.00000000     -0.00000000
  H        5.17641890     -0.89043960      0.31764769
  C        3.13965317     -0.09899707      0.10803353
  H        2.85532178     -0.18953225      1.16911372
  C        2.37618170      1.06821521     -0.53591466
  H        2.31973470      0.85412078     -1.60877639
  C        3.15708984      2.39314727     -0.31035871
  H        3.27113545      2.49476803      0.78176614
  C        2.34210280      3.61767220     -0.78602248
  H        2.29722797      3.62975654     -1.88043938
  H        2.85905998      4.53859515     -0.49486591
  C        0.90522746      3.67228013     -0.23130380
  H        0.94025923      3.81626954      0.85838840
  H        0.40711009      4.55477686     -0.64538534
  C        0.12186875      2.38001704     -0.53401020
  C        0.95797767      1.20255161      0.04633150
  H        1.09680256      1.45084092      1.11348209
  C        0.00000000      0.00000000      0.00000000
  H        0.26597634     -0.77326800      0.72532363
  H        0.03023109     -0.48144703     -0.98269853
  C       -1.39295110      0.62700552      0.28126742
  H       -2.11678778      0.31698350     -0.48172401
  H       -1.79898803      0.29298969      1.24161586
  C       -1.21475065      2.18018239      0.26100762
  H       -1.00030520      2.51208918      1.28780255
  C       -0.12684527      2.23580959     -2.05269102
  H        0.80299309      2.16618257     -2.62269358
  H       -0.71451278      1.34385134     -2.28836241
  H       -0.67701861      3.10153391     -2.43662809
  C       -2.49580443      2.91759917     -0.20254957
  H       -2.71531938      2.57890772     -1.22562406
  C       -2.35075024      4.45042823     -0.25086679
  H       -1.96387797      4.85528938      0.69101415
  H       -3.32314246      4.92093674     -0.43919166
  H       -1.67602406      4.77267904     -1.04805541
  C        4.63485731      2.43815313     -2.43104020
  H        4.28126707      3.41187512     -2.78378098
  H        5.64430723      2.29956937     -2.82785404
  H        4.00481159      1.66051896     -2.87224911
  O        2.68568131     -1.39277445     -0.36444776
  O        2.93322070     -1.49183264     -1.79810176
  H        3.72743945     -2.05073262     -1.81066265
  O        8.93914125      2.14639547     -0.06850904
  H        9.16096422      2.19973194     -1.00880020
  C       -3.73761330      2.51969989      0.63986736
  H       -4.61388618      3.00638280      0.18790250
  H       -3.91352860      1.44128452      0.54137535
  C       -3.70012143      2.87737068      2.13521863
  H       -2.85019127      2.37520466      2.61326507
  H       -3.53002505      3.95441455      2.25273429
  C       -5.00118477      2.48005691      2.85205161
  H       -5.16637088      1.40236920      2.70818534
  H       -5.84319327      2.98315933      2.35475160
  C       -5.07998093      2.78482619      4.36622557
  H       -6.07061792      2.43491859      4.69261147
  C       -4.03562632      2.00611012      5.18331895
  H       -3.01605522      2.34250661      4.96228980
  H       -4.19896405      2.14501744      6.25818202
  H       -4.08592446      0.93101759      4.97419918
  C       -5.01019615      4.29016230      4.67251050
  H       -4.02510201      4.70650953      4.43215284
  H       -5.19434073      4.48071379      5.73603529
  H       -5.75861766      4.84931612      4.09863186



