%Mem=256MB 
%NProc=48 

#P HF/6-31G* SCF(Conver=6) NoSymm Test 
   Pop=chelpg IOp(6/33=2) GFInput GFPrint 

MEP - Input generated by R.E.D.-III.x MOLECULE 

0 1 
  C        0.99664949     -0.89984217     -1.68959972
  H        1.15210593      0.06700156     -2.18384213
  C        2.20795421     -1.80193288     -1.96341778
  H        2.34988276     -1.91647138     -3.04235016
  H        1.97373488     -2.80377274     -1.56776649
  C        3.48149551     -1.28681609     -1.31930225
  C        3.41814271     -0.92888592      0.16891260
  C        2.12712141     -0.08938127      0.42183869
  H        2.28087448      0.91366135      0.00000000
  H        1.98335954      0.04544154      1.49909022
  C        0.84313711     -0.67509536     -0.18565542
  H        0.59170663     -1.63190353      0.29545453
  H        0.00000000      0.00000000      0.00000000
  C        4.60289259     -1.17562661     -2.04343270
  H        4.59097114     -1.43436000     -3.09985100
  C        5.94104841     -0.75134195     -1.51420016
  H        6.25376026      0.19224205     -1.98782710
  C        6.00789319     -0.62194483      0.01647512
  H        6.16773875     -1.63345041      0.41179973
  C        4.66258260     -0.05970136      0.55883603
  H        4.51721644      0.90776625      0.05099785
  C        4.74812270      0.24154156      2.07371908
  H        4.79567568     -0.69690344      2.63635809
  H        3.82985619      0.74266037      2.39824622
  C        5.94924786      1.12107025      2.47057317
  H        5.82852279      2.11916052      2.02661775
  H        5.94223166      1.25838960      3.55825734
  C        7.28272022      0.51762611      1.99194303
  C        7.15915293      0.30277370      0.45341963
  H        6.90515758      1.29514949      0.04416897
  C        8.60023310     -0.00000000      0.00000000
  H        8.76092541      0.24801069     -1.05379049
  H        8.82376387     -1.06623808      0.10625507
  C        9.48018775      0.86198033      0.94891878
  H       10.25039471      0.24687534      1.42519070
  H       10.01189093      1.65340161      0.40905684
  C        8.51763587      1.48451525      2.00836891
  H        8.13784119      2.41344766      1.56049327
  C        7.56323559     -0.80953085      2.73463643
  H        6.84589496     -1.58925881      2.46640530
  H        8.55961357     -1.20284754      2.51826079
  H        7.49216447     -0.66878017      3.81685619
  C        9.25476490      1.94127393      3.30022768
  H       10.08859958      2.54964988      2.91773668
  C        9.90844692      0.83783428      4.15665021
  H        9.17571952      0.29934073      4.76483061
  H       10.63058382      1.28910136      4.84652314
  H       10.45032164      0.10127139      3.55634445
  C        3.35436945     -2.24338986      0.99190241
  H        3.15503673     -2.04297011      2.04926851
  H        2.55853197     -2.90143471      0.63339451
  H        4.29118393     -2.80347382      0.91712942
  O        6.93987661     -1.74793717     -1.84876699
  O        7.12163536     -1.72824898     -3.29681210
  H        8.03738889     -1.40892944     -3.35127117
  O       -0.19579789     -1.41190288     -2.29114731
  H       -0.39146981     -2.27637272     -1.90308540
  C        8.42444830      2.86398930      4.22603662
  H        7.57523141      2.29786068      4.62937444
  H        9.05358969      3.10940015      5.09390155
  C        7.90533164      4.18661082      3.63120179
  H        7.21350586      3.98252835      2.80647414
  H        7.30687476      4.68877584      4.40475460
  C        9.00922722      5.15013944      3.16706719
  H        9.54071275      4.72813179      2.30186193
  H        9.75651385      5.23657992      3.96949747
  C        8.52591330      6.56787158      2.79829582
  H        7.97582292      6.96634050      3.66495172
  C        9.72288146      7.49571159      2.53690333
  H       10.31033179      7.14368070      1.67912088
  H        9.39369684      8.51744939      2.31595373
  H       10.39255157      7.53866847      3.40351511
  C        7.57089456      6.57007023      1.59354743
  H        8.06477355      6.15357281      0.70577315
  H        7.25348937      7.58977983      1.34754342
  H        6.66789110      5.98068023      1.78160621



