%Mem=256MB 
%NProc=48 

#P HF/6-31G* SCF(Conver=6) NoSymm Test 
   Pop=chelpg IOp(6/33=2) GFInput GFPrint 

MEP - Input generated by R.E.D.-III.x MOLECULE 

0 1 
  C        7.51749826      2.21513592      0.06869476
  H        7.35560269      2.18417256      1.15312218
  C        6.82215141      1.00737742     -0.57557973
  H        7.20522803      0.08099345     -0.13604297
  H        7.10345305      0.99210621     -1.64115100
  C        5.31127757      1.06233579     -0.45374457
  C        4.61626141      2.36057234     -0.87866776
  C        5.40987620      3.56480342     -0.28220354
  H        5.21169980      3.60662033      0.79786485
  H        5.02430499      4.49868104     -0.70419347
  C        6.93125671      3.51093642     -0.48957117
  H        7.17686015      3.58334399     -1.55956925
  H        7.40582518      4.36892734      0.00000000
  C        4.63254351     -0.00000000     -0.00000000
  H        5.17674411     -0.89065809      0.31602486
  C        3.13945797     -0.09981266      0.10918762
  H        2.85601469     -0.19298580      1.17025646
  C        2.37492012      1.06854900     -0.53155854
  H        2.31697438      0.85618306     -1.60464621
  C        3.15615652      2.39285204     -0.30555566
  H        3.27165050      2.49370918      0.78648388
  C        2.33972676      3.61667549     -0.77928648
  H        2.29029764      3.62744318     -1.87354466
  H        2.85744701      4.53808080     -0.49097114
  C        0.90509852      3.67102782     -0.21935063
  H        0.94397058      3.81122592      0.87070742
  H        0.40801920      4.55607919     -0.62822202
  C        0.11874486      2.38001769     -0.52293319
  C        0.95713526      1.20137619      0.05258239
  H        1.09597493      1.44467255      1.12096116
  C        0.00000000      0.00000000      0.00000000
  H        0.27465491     -0.78598596      0.70807457
  H        0.01656353     -0.46399219     -0.99145338
  C       -1.38657051      0.62363774      0.31322803
  H       -2.13418710      0.30047171     -0.42125167
  H       -1.75479024      0.29677467      1.29043957
  C       -1.21893868      2.18075567      0.27224267
  H       -1.01670306      2.52822162      1.29820351
  C       -0.13275662      2.23513900     -2.04166936
  H        0.79594635      2.15775002     -2.61261844
  H       -0.72682384      1.34666931     -2.27429789
  H       -0.67803077      3.10270464     -2.42762549
  C       -2.50689864      2.90706764     -0.19693525
  H       -2.76497195      2.51993757     -1.19453560
  C       -2.34055186      4.43323374     -0.30734399
  H       -1.98797545      4.85819649      0.64095789
  H       -3.28945667      4.91857509     -0.55433462
  H       -1.62787664      4.71651175     -1.08505664
  C        4.63029448      2.44119949     -2.42844778
  H        4.27675879      3.41576966     -2.77893287
  H        5.63890469      2.30246555     -2.82735379
  H        3.99881936      1.66475069     -2.86974984
  O        2.68617480     -1.39292792     -0.36594793
  O        2.93513826     -1.48952217     -1.79944464
  H        3.73021972     -2.04719553     -1.81218598
  O        8.93868097      2.14723609     -0.07455856
  H        9.15848290      2.20113641     -1.01529183
  C       -3.68778898      2.56342665      0.74548008
  H       -3.70035762      1.48411852      0.93382740
  H       -3.50905741      3.03980183      1.72191980
  C       -5.08060738      2.96386274      0.23247342
  H       -5.13169200      4.04814974      0.08446897
  H       -5.24288235      2.50891197     -0.75622154
  C       -6.20706909      2.52209508      1.17907952
  H       -6.07034967      3.00623712      2.15839225
  H       -6.10899210      1.44196971      1.35929432
  C       -7.63991631      2.80339873      0.68228817
  H       -7.74156014      2.34585187     -0.31408647
  C       -8.67116404      2.13965304      1.60881620
  H       -8.61223193      2.55802520      2.62189151
  H       -9.69293974      2.29632230      1.24457976
  H       -8.50361916      1.05918109      1.68498578
  C       -7.93331339      4.30610331      0.54263808
  H       -7.81801308      4.81552070      1.50836337
  H       -8.96096035      4.47390057      0.20054540
  H       -7.26458397      4.79313118     -0.17404170



