%Mem=256MB 
%NProc=48 

#P HF/6-31G* SCF(Conver=6) NoSymm Test 
   Pop=chelpg IOp(6/33=2) GFInput GFPrint 

MEP - Input generated by R.E.D.-III.x MOLECULE 

0 1 
  C        0.99678142     -0.90159708     -1.68853451
  H        1.15249620      0.06479529     -2.18359622
  C        2.20798710     -1.80413057     -1.96121966
  H        2.34992283     -1.91998998     -3.04001293
  H        1.97372503     -2.80548238     -1.56435628
  C        3.48149391     -1.28826264     -1.31773713
  C        3.41830058     -0.92870641      0.17008884
  C        2.12695499     -0.08931597      0.42241116
  H        2.28065726      0.91348852      0.00000000
  H        1.98305361      0.04620016      1.49957049
  C        0.84302886     -0.67545520     -0.18484401
  H        0.59117054     -1.63170464      0.29709065
  H        0.00000000      0.00000000      0.00000000
  C        4.60278467     -1.17792980     -2.04212345
  H        4.59072509     -1.43785004     -3.09824555
  C        5.94103334     -0.75324095     -1.51343273
  H        6.25383781      0.18989504     -1.98791456
  C        6.00790433     -0.62248888      0.01711351
  H        6.16702273     -1.63363433      0.41361140
  C        4.66275861     -0.05887160      0.55872840
  H        4.51760380      0.90785937      0.04944309
  C        4.74816815      0.24399065      2.07317514
  H        4.79364416     -0.69413693      2.63654345
  H        3.83051071      0.74686170      2.39663898
  C        5.95059501      1.12135309      2.47113649
  H        5.83191016      2.12081647      2.02938006
  H        5.94298842      1.25578585      3.55910032
  C        7.28359801      0.51671896      1.99220737
  C        7.15948046      0.30203895      0.45365568
  H        6.90529310      1.29452846      0.04472511
  C        8.60050349     -0.00000000      0.00000000
  H        8.76026740      0.24552493     -1.05448939
  H        8.82545792     -1.06568880      0.10892020
  C        9.47994359      0.86534283      0.94636989
  H       10.25431365      0.25315634      1.41944650
  H       10.00637638      1.65926210      0.40501544
  C        8.51748314      1.48432209      2.00810849
  H        8.13665329      2.41292516      1.56170508
  C        7.56385613     -0.80992783      2.73561700
  H        6.84330875     -1.58816374      2.47177673
  H        8.55834744     -1.20615338      2.51571452
  H        7.49769448     -0.66700743      3.81789998
  C        9.25355293      1.94004169      3.30159465
  H       10.07745945      2.56543540      2.91979389
  C        9.92078799      0.83519703      4.14589422
  H        9.19515279      0.28986237      4.75634271
  H       10.64589630      1.28607342      4.83287754
  H       10.46151981      0.10433325      3.53781537
  C        3.35535595     -2.24246424      0.99435572
  H        3.15603264     -2.04125791      2.05158425
  H        2.55994759     -2.90126686      0.63638650
  H        4.29255934     -2.80199491      0.91997447
  O        6.93965063     -1.75025654     -1.84719421
  O        7.12113530     -1.73188755     -3.29529959
  H        8.03703210     -1.41305779     -3.35020383
  O       -0.19563339     -1.41400461     -2.28983800
  H       -0.39140973     -2.27818240     -1.90118074
  C        8.42454369      2.85635775      4.23498372
  H        7.54545014      2.31219103      4.60556235
  H        9.04222077      3.05532388      5.12042354
  C        7.97959033      4.19950634      3.63598681
  H        8.86221900      4.73950844      3.26661353
  H        7.34874982      4.02385770      2.75682606
  C        7.18271972      5.09441220      4.60446018
  H        6.28211624      4.54875149      4.92147629
  H        6.82296116      5.97405929      4.05028292
  C        7.91847493      5.59330871      5.86664350
  H        8.25820169      4.71825345      6.43879385
  C        9.15305535      6.44404708      5.52881519
  H        8.86989892      7.32212301      4.93373244
  H        9.64065339      6.80523094      6.44141668
  H        9.89925419      5.88185518      4.95803309
  C        6.95113867      6.38066024      6.76527031
  H        6.57977231      7.27610012      6.25034917
  H        7.44280565      6.70861454      7.68822881
  H        6.08230409      5.77391886      7.04537784



