%Mem=256MB 
%NProc=48 

#P HF/6-31G* SCF(Conver=6) NoSymm Test 
   Pop=chelpg IOp(6/33=2) GFInput GFPrint 

MEP - Input generated by R.E.D.-III.x MOLECULE 

0 1 
  C        7.50924493      2.21642021      0.07228529
  H        7.34174481      2.18809536      1.15596994
  C        6.81887238      1.00641802     -0.57213523
  H        7.19853572      0.08141446     -0.12760708
  H        7.10612268      0.98633834     -1.63620777
  C        5.30712676      1.06175928     -0.45552613
  C        4.61765456      2.35735389     -0.89482198
  C        5.40248572      3.56522451     -0.29459016
  H        5.19637701      3.60754552      0.78402871
  H        5.01943434      4.49855657     -0.72065985
  C        6.92535344      3.51153772     -0.49143492
  H        7.17808409      3.58292986     -1.55972199
  H        7.39640377      4.37043298     -0.00000000
  C        4.62933151      0.00000000      0.00000000
  H        5.16867799     -0.89317478      0.30739342
  C        3.13556812     -0.10284730      0.09471113
  H        2.82965348     -0.21213402      1.14680699
  C        2.37418631      1.06249573     -0.55830004
  H        2.31755942      0.84211448     -1.63245445
  C        3.15189716      2.39089944     -0.34159974
  H        3.25137391      2.50430368      0.75026218
  C        2.33462698      3.60277076     -0.84405589
  H        2.29414378      3.59248810     -1.93868762
  H        2.84931247      4.52998072     -0.56988601
  C        0.89596948      3.66664013     -0.29592223
  H        0.92648049      3.83010375      0.79107234
  H        0.40052176      4.54194983     -0.72707273
  C        0.11251892      2.36857213     -0.57725501
  C        0.95440634      1.20404367      0.02133195
  H        1.09496520      1.47032886      1.08309335
  C        0.00000000      0.00000000      0.00000000
  H        0.27523871     -0.76036910      0.73750335
  H        0.01878669     -0.49331339     -0.97699100
  C       -1.38969361      0.62596554      0.29430062
  H       -2.13091441      0.28705782     -0.43925403
  H       -1.76464058      0.31797197      1.27500390
  C       -1.22435224      2.18169827      0.22275981
  H       -1.02154501      2.54889300      1.24163916
  C       -0.13837443      2.19558359     -2.09279271
  H        0.79081888      2.12130686     -2.66335659
  H       -0.72253749      1.29665353     -2.31096863
  H       -0.69422381      3.05026611     -2.49191158
  C       -2.51579858      2.89457982     -0.25833617
  H       -2.76500227      2.49121374     -1.24997344
  C       -2.35952281      4.41902090     -0.39122401
  H       -2.03710734      4.86608644      0.55773786
  H       -3.30539989      4.89107819     -0.67347755
  H       -1.62867097      4.69376548     -1.15473037
  C        4.64978213      2.43318242     -2.44479414
  H        4.30780076      3.40879438     -2.80418948
  H        5.66137922      2.28430424     -2.83124089
  H        4.01889474      1.65952765     -2.89237255
  O        2.67966755     -1.28710009     -0.60722913
  O        3.15026683     -2.45334718      0.13346763
  H        2.30247472     -2.82164478      0.43204026
  O        8.93178125      2.15266155     -0.06314442
  H        9.15387030      2.16667610     -1.00477377
  C       -3.68723937      2.55466422      0.69897749
  H       -3.75329202      1.46657208      0.81418816
  H       -3.44060978      2.95158531      1.69519783
  C       -5.08491964      3.06665064      0.29973743
  H       -5.78415240      2.77918258      1.09786704
  H       -5.09466085      4.16239048      0.27856086
  C       -5.60805253      2.50708151     -1.03252383
  H       -5.46889395      1.41600128     -1.03084358
  H       -5.00153774      2.88883378     -1.86658418
  C       -7.09164439      2.80701159     -1.32999252
  H       -7.68153093      2.44046958     -0.47549932
  C       -7.36963648      4.31134770     -1.48264385
  H       -6.78150660      4.73302983     -2.30833801
  H       -8.42756557      4.49333213     -1.70347498
  H       -7.12166479      4.87113629     -0.57529649
  C       -7.55657844      2.04483586     -2.58094074
  H       -6.99852389      2.37177432     -3.46778388
  H       -8.62110971      2.21527741     -2.77817830
  H       -7.40410185      0.96496735     -2.47132635



