%Mem=256MB 
%NProc=48 

#P HF/6-31G* SCF(Conver=6) NoSymm Test 
   Pop=chelpg IOp(6/33=2) GFInput GFPrint 

MEP - Input generated by R.E.D.-III.x MOLECULE 

0 1 
  C       -1.01096294      1.98342851      1.68384637
  H       -0.99218677      1.00622196      2.18180141
  C        0.31613973      2.70667876      1.95171232
  H        0.47529388      2.80426725      3.02991619
  H        0.22463861      3.73003421      1.55233942
  C        1.50280683      2.01482399      1.30742964
  C        1.38592567      1.66237416     -0.17877052
  C       -0.01135542      1.01295895     -0.42598916
  H        0.00000000      0.00000000      0.00000000
  H       -0.17476970      0.89514253     -1.50247308
  C       -1.19834380      1.77667035      0.18113720
  H       -1.31348626      2.75750778     -0.30354502
  H       -2.12880207      1.22663338      0.00000000
  C        2.59970643      1.75108429      2.02957155
  H        2.62733715      2.01421754      3.08462043
  C        3.86396176      1.14163131      1.49946616
  H        4.04526557      0.16770142      1.98014523
  C        3.90592040      0.99171247     -0.03018330
  H        4.20851955      1.96596491     -0.43614486
  C        2.49371799      0.62359081     -0.56553642
  H        2.21357805     -0.31107874     -0.05286444
  C        2.53698189      0.30832352     -2.07803617
  H        2.71185331      1.23072734     -2.64239247
  H        1.55891576     -0.06311440     -2.40244689
  C        3.60567607     -0.72702586     -2.47793914
  H        3.35363018     -1.70127659     -2.03460011
  H        3.56818820     -0.86133666     -3.56330694
  C        5.01355906     -0.31747927     -2.00023117
  C        4.91232929     -0.09059420     -0.46359771
  H        4.51676434     -1.03884996     -0.06061613
  C        6.37442789     -0.00000000     -0.00000000
  H        6.48986722     -0.24887935      1.05948324
  H        6.75874628      1.01738820     -0.12404587
  C        7.11591437     -1.00481129     -0.92211144
  H        8.00545977     -0.54168388     -1.36571216
  H        7.47001197     -1.87285242     -0.35796136
  C        6.11057687     -1.43863368     -2.04222816
  H        5.61162563     -2.36348815     -1.71116542
  C        5.50325232      0.94284387     -2.74980461
  H        4.85875445      1.80813879     -2.57556308
  H        6.51535036      1.23018379     -2.44978028
  H        5.52152181      0.76689071     -3.83021603
  C        6.81930089     -1.77058647     -3.38169321
  H        7.37979514     -0.87629308     -3.69442621
  C        5.84297005     -2.13953384     -4.51272984
  H        5.19551333     -2.97390417     -4.21472932
  H        6.38028701     -2.44427268     -5.41558846
  H        5.19993520     -1.30273314     -4.79398744
  C        1.50765129      2.96887734     -1.00792875
  H        1.27768788      2.79457830     -2.06371821
  H        0.81545011      3.73545463     -0.65002636
  H        2.51526801      3.38945594     -0.93875699
  O        4.99233831      1.99335099      1.82258243
  O        5.17650904      1.95938755      3.27005643
  H        6.03964530      1.51708440      3.32374849
  O       -2.11778754      2.66082664      2.28557255
  H       -2.19066589      3.54275361      1.89432751
  C        7.85236898     -2.90611094     -3.17257679
  H        8.45337095     -2.69057036     -2.28191603
  H        7.31094042     -3.83967295     -2.95441995
  C        8.82204477     -3.14246607     -4.34254357
  H        8.26768186     -3.44379155     -5.23844038
  H        9.31626873     -2.19259836     -4.58812586
  C        9.87792360     -4.21033054     -4.01257881
  H        9.36097258     -5.14080017     -3.73619141
  H       10.42998001     -3.89371903     -3.11579622
  C       10.90354161     -4.53731027     -5.12303418
  H       11.56857610     -5.30551653     -4.70130342
  C       10.24974998     -5.14591578     -6.37481786
  H        9.61521723     -4.41872270     -6.89447650
  H       11.01132770     -5.48193871     -7.08775819
  H        9.62691240     -6.01127017     -6.11920687
  C       11.78375591     -3.33118578     -5.49046432
  H       11.20291135     -2.54033129     -5.97896900
  H       12.58006668     -3.62638951     -6.18325150
  H       12.25795895     -2.89771721     -4.60199754



