%Mem=256MB 
%NProc=12 

#P HF/6-31G* SCF(Conver=6) NoSymm Test 
   Pop=mk IOp(6/33=2) GFInput GFPrint 

MEP - Input generated by R.E.D.-III.x MOLECULE 

0 1 
  O        0.44160764     -3.38858778      7.25388060
  H        0.27451749     -4.32907338      7.10721441
  C        1.50836323      1.50109032      0.00000000
  C        1.10389628     -0.00000000     -0.00000000
  H        0.00000000      0.00000000      0.00000000
  C        1.51784829     -0.79480182      1.24542812
  H        2.61484072     -0.81592384      1.31242447
  C        0.94372478     -0.11832744      2.51775287
  H       -0.14988963     -0.24134902      2.44843242
  C        0.94914649      1.93472259     -1.39995458
  H       -0.14539712      1.99216810     -1.28689662
  C        0.83548980      2.13352080      1.23588748
  H       -0.25517448      2.09108598      1.10145274
  H        1.09408241      3.19177205      1.34253952
  C        1.37013260     -0.85090015      3.83833962
  C        1.53654903     -0.50882942     -1.38292283
  H        0.98042358     -1.39827170     -1.69552234
  H        2.59815582     -0.78551410     -1.37891688
  C        1.22124620      1.40265405      2.53868642
  H        2.28263469      1.58421254      2.73869917
  H        0.67605055      1.86557491      3.36898518
  C        1.27631275      0.70471965     -2.31695382
  H        2.15264108      0.91547999     -2.94126732
  H        0.45163233      0.49785380     -3.00536216
  C        1.02433723     -2.24823302      1.15905249
  H        1.62653360     -2.80858169      0.43151743
  H       -0.00338093     -2.26397636      0.75937683
  C        1.40654198      3.27645759     -2.02836674
  H        2.48879133      3.19934200     -2.20998681
  C        3.04130605      1.69819371      0.05010999
  H        3.29355601      2.76206585      0.10771027
  H        3.49401331      1.21288743      0.91822151
  H        3.53599038      1.29515316     -0.83881669
  C        1.21774597     -2.36966473      3.67387505
  C        0.42424511     -0.38961508      4.99077749
  H       -0.61114776     -0.44362211      4.62640366
  H        0.61761655      0.66361855      5.22158148
  C        1.04946650     -2.96051115      2.48166454
  H        0.92266845     -4.04328820      2.45038001
  C        2.84166554     -0.53551499      4.21881222
  H        2.96129635      0.50912252      4.52292503
  H        3.18146864     -1.15350821      5.05361465
  H        3.51693260     -0.72817635      3.37937944
  C        1.26495353     -3.19885190      4.94384027
  H        1.05302169     -4.24866414      4.70330399
  H        2.26946585     -3.17327483      5.38950803
  C        0.53006642     -1.21143631      6.28366995
  H        1.51999450     -1.10165367      6.74383448
  H       -0.19884337     -0.84989651      7.01787230
  C        0.71783560      3.50571235     -3.40928482
  H        0.25150178      2.57573173     -3.75009332
  H       -0.11121205      4.21512923     -3.28293423
  C        0.28641281     -2.69017868      6.01227138
  H       -0.74475232     -2.82105454      5.64438780
  C        1.16865925      4.49015990     -1.11101993
  H        0.11922315      4.54034115     -0.79506118
  H        1.39772559      5.42416710     -1.63244682
  H        1.78713808      4.46181788     -0.21052750
  C        1.64946347      3.97999016     -4.54423785
  H        2.46227525      3.24741767     -4.64539702
  H        1.09458072      3.93477661     -5.49020213
  C        2.28255555      5.37621081     -4.39594482
  H        3.01795195      5.50743591     -5.20364079
  H        2.86030329      5.41493584     -3.46263182
  C        1.31710067      6.58067810     -4.43277801
  H        0.55695139      6.44103406     -3.65095402
  C        0.58458254      6.70469476     -5.77874517
  H       -0.02750316      5.82454358     -5.99987541
  H       -0.07976997      7.57630253     -5.78292793
  H        1.30089331      6.82912610     -6.60137320
  C        2.07562693      7.87901478     -4.11322513
  H        2.56576489      7.82605685     -3.13419089
  H        1.40130891      8.74295757     -4.10439722
  H        2.85299147      8.07182316     -4.86378859



