%Mem=256MB 
%NProc=12 

#P HF/6-31G* SCF(Conver=6) NoSymm Test 
   Pop=mk IOp(6/33=2) GFInput GFPrint 

MEP - Input generated by R.E.D.-III.x MOLECULE 

0 1 
  O        4.99675434     -0.22152231     -7.25488553
  H        5.94796491     -0.31032670     -7.10907368
  C        0.00000000      0.00000000      0.00000000
  C        1.55452867      0.00000000     -0.00000000
  H        1.84036998      1.06615502      0.00000000
  C        2.21276276     -0.60339465     -1.24761285
  H        1.94532590     -1.66726892     -1.31908541
  C        1.70999927      0.13440984     -2.51620118
  H        2.11601410      1.15691839     -2.44149466
  C       -0.26789068      0.64551941      1.40383002
  H       -0.01445440      1.71032221      1.29346452
  C       -0.43600103      0.82166403     -1.23038645
  H       -0.11227123      1.86329646     -1.09022517
  H       -1.52548181      0.84631653     -1.33596963
  C        2.30463586     -0.46248008     -3.84020220
  C        1.93784120     -0.55003852      1.38278374
  H        2.93299633     -0.22336607      1.70072267
  H        1.95424076     -1.64702696      1.37291422
  C        0.16928951      0.26649034     -2.53658108
  H       -0.28450744     -0.70856630     -2.74332978
  H       -0.13375144      0.91945372     -3.36291371
  C        0.81603676     -0.01699816      2.31716854
  H        0.37508548     -0.83524018      2.89858232
  H        1.20623349      0.70080858      3.04571269
  C        3.74465722     -0.50850167     -1.16142121
  H        4.12768321     -1.23867830     -0.43611747
  H        4.02935430      0.47798804     -0.75894887
  C       -1.68685408      0.57132874      2.02031326
  H       -1.93801582     -0.49324135      2.13549611
  C       -0.59451647     -1.42570193     -0.05865995
  H       -1.68793648     -1.38548168     -0.10844372
  H       -0.25284382     -1.98296902     -0.93429582
  H       -0.33057093     -2.01752913      0.82312028
  C        3.80969592     -0.71744904     -3.67690296
  C        2.11077346      0.57886530     -4.98634182
  H        2.43831052      1.56038971     -4.61619734
  H        1.04391226      0.67377406     -5.21599750
  C        4.42462477     -0.71554171     -2.48499708
  H        5.50250661     -0.87902611     -2.45488985
  C        1.61167380     -1.79593620     -4.22899963
  H        0.57295622     -1.63325147     -4.53340573
  H        2.11864692     -2.28265439     -5.06582822
  H        1.61778199     -2.50261153     -3.39334803
  C        4.59659401     -0.97637553     -4.94826592
  H        5.66509928     -1.05101129     -4.70826420
  H        4.30604377     -1.93610276     -5.39857868
  C        2.87448537      0.26601959     -6.28136406
  H        2.50574373     -0.65679857     -6.74632316
  H        2.71899086      1.06874499     -7.01110740
  C       -1.73649607      1.16492925      3.45388328
  H       -2.74692700      0.98879600      3.85003192
  H       -1.05979139      0.59871987      4.10614922
  C        4.36502647      0.10721660     -6.01138023
  H        4.76484965      1.06491560     -5.63892911
  C       -2.77994907      1.20512609      1.13944348
  H       -2.51963010      2.22474878      0.83407233
  H       -3.73000012      1.25450793      1.68469214
  H       -2.95842953      0.62636951      0.22973273
  C       -1.41413482      2.66239286      3.59222046
  H       -0.39561903      2.85522607      3.23359421
  H       -2.08452314      3.24471734      2.94869383
  C       -1.54711729      3.14556472      5.04599197
  H       -0.88806245      2.53540328      5.68070857
  H       -2.57120943      2.94160916      5.39093385
  C       -1.23301386      4.63617233      5.31274729
  H       -1.38711765      4.78801243      6.39140789
  C       -2.19683234      5.58534760      4.58147205
  H       -3.24253655      5.33752514      4.79869113
  H       -2.02920460      6.62398379      4.88869615
  H       -2.06145524      5.54055687      3.49465887
  C        0.23131982      4.99680852      5.01198395
  H        0.92309325      4.32838622      5.53813064
  H        0.45308961      6.02251424      5.32823582
  H        0.45244178      4.93103599      3.94039372



