%Mem=256MB 
%NProc=12 

#P HF/6-31G* SCF(Conver=6) NoSymm Test 
   Pop=mk IOp(6/33=2) GFInput GFPrint 

MEP - Input generated by R.E.D.-III.x MOLECULE 

0 1 
  O       -3.71783730     -3.59473681     -4.15267591
  H       -3.87099245     -4.43711934     -3.70448088
  C        1.58587321      2.05792191      0.00000000
  C        1.32514194      0.60652402      0.47703443
  H        2.11390680      0.00000000     -0.00000000
  C        0.00000000      0.00000000      0.00000000
  H       -0.83632094      0.57676161      0.41961213
  C       -0.06834554      0.05362893     -1.55176857
  H        0.70900466     -0.64604389     -1.90112397
  C        2.96941678      2.30897199      0.67691970
  H        3.65798262      1.64985712      0.12824890
  C        1.60845896      2.03484808     -1.53850183
  H        2.46181010      1.42534466     -1.86971196
  H        1.76369271      3.04113923     -1.95050450
  C       -1.42363620     -0.50396980     -2.11430737
  C        1.65603424      0.63723005      1.98187756
  H        1.95419044     -0.34558323      2.36036308
  H        0.78107636      0.94727692      2.56664355
  C        0.30368974      1.44772595     -2.11712242
  H       -0.51141562      2.15441687     -1.93113521
  H        0.40308826      1.38543365     -3.20656091
  C        2.80415153      1.68846766      2.09996965
  H        2.54764410      2.45073250      2.84099072
  H        3.73865398      1.22994147      2.43974463
  C       -0.14469947     -1.45403095      0.47632762
  H       -0.36203321     -1.47752097      1.55258350
  H        0.82069041     -1.97501456      0.36323559
  C        3.60108708      3.72844749      0.58469355
  H        3.26484752      4.16010735     -0.37060276
  C        0.51351561      3.05109959      0.50031552
  H        0.73687119      4.06398189      0.14794156
  H       -0.48464954      2.79733601      0.13537398
  H        0.45604758      3.08473396      1.59193756
  C       -1.79698880     -1.81028734     -1.39876996
  C       -1.24171847     -0.81716204     -3.63238981
  H       -0.30680876     -1.38145133     -3.75593882
  H       -1.11424839      0.11987657     -4.18516620
  C       -1.20591805     -2.21604380     -0.26529026
  H       -1.50938775     -3.16987787      0.16775736
  C       -2.58206401      0.51282725     -1.93018960
  H       -2.45006906      1.39101919     -2.57006465
  H       -3.54796422      0.07114771     -2.18739506
  H       -2.64901317      0.85149615     -0.89169708
  C       -2.88815316     -2.64781814     -2.03959266
  H       -2.99634328     -3.59085221     -1.48838422
  H       -3.85866216     -2.13491366     -1.98184614
  C       -2.38477875     -1.62032416     -4.27001113
  H       -3.32125282     -1.04866125     -4.26630837
  H       -2.15204474     -1.83413371     -5.31938956
  C        3.19348413      4.71887534      1.70190870
  H        2.14013794      4.58315489      1.96706038
  H        3.76548510      4.48955074      2.61245768
  C       -2.61579691     -2.92815013     -3.52450560
  H       -1.71171269     -3.55342667     -3.61066616
  C        5.13742643      3.61074630      0.50967531
  H        5.53405978      3.12002303      1.40733756
  H        5.61981372      4.59008242      0.42845394
  H        5.44735294      3.01803638     -0.35816473
  C        3.40463315      6.19807051      1.33690547
  H        4.45372387      6.36869478      1.06734128
  H        2.81509800      6.42566356      0.43842748
  C        3.00446301      7.14636859      2.47848881
  H        3.59205160      6.88783935      3.37135163
  H        1.95416107      6.95502354      2.74250494
  C        3.16915487      8.66096571      2.21188078
  H        2.83486610      9.16622118      3.13016736
  C        2.27123116      9.16283130      1.06883564
  H        1.22373633      8.88289808      1.23175512
  H        2.31613585     10.25498127      0.98865365
  H        2.58069040      8.75168636      0.10102714
  C        4.63444976      9.06688146      1.98210465
  H        5.27802276      8.71794636      2.79828743
  H        4.73214314     10.15691970      1.92282699
  H        5.02708047      8.65298152      1.04615829



