%Mem=256MB 
%NProc=12 

#P HF/6-31G* SCF(Conver=6) NoSymm Test 
   Pop=mk IOp(6/33=2) GFInput GFPrint 

MEP - Input generated by R.E.D.-III.x MOLECULE 

0 1 
  O        4.15426987      6.54767973      4.14718918
  H        4.93021712      6.90730151      3.69716791
  C        0.00000000      0.00000000      0.00000000
  C        1.34136006      0.61305876     -0.47693014
  H        2.12509997      0.00000000      0.00000000
  C        1.59906228      2.04749977      0.00000000
  H        0.83241889      2.71404933     -0.41955039
  C        1.53049650      2.10059185      1.55156107
  H        2.40193738      1.52229259      1.90089819
  C        0.09978686     -1.40195188     -0.67851192
  H        0.91348502     -1.90244005     -0.13361755
  C        0.02893778     -0.01689394      1.53848822
  H        0.83158841     -0.69215312      1.86898779
  H       -0.90704483     -0.41738176      1.95080704
  C        1.73255820      3.55231112      2.11392999
  C        1.39377374      0.28579743     -1.98194531
  H        2.42011810      0.23729052     -2.35926740
  H        0.87997827      1.05901411     -2.56655862
  C        0.27315505      1.39275865      2.11738213
  H       -0.61466580      2.00556361      1.93145715
  H        0.35864919      1.31205919      3.20680032
  C        0.65488595     -1.08410883     -2.10272657
  H       -0.14989336     -1.01726897     -2.83987646
  H        1.32598161     -1.87687748     -2.44938970
  C        2.97098307      2.54986290     -0.47688529
  H        2.93958925      2.76459860     -1.55345344
  H        3.71670902      1.74550524     -0.36241191
  C       -1.11331480     -2.37464799     -0.58007615
  H       -1.60935775     -2.15450138      0.37571509
  C       -1.22702666      0.79410255     -0.50020614
  H       -2.15276975      0.33382629     -0.13979165
  H       -1.22169657      1.82721124     -0.14430410
  H       -1.27890470      0.83202796     -1.59204670
  C        2.90259459      4.24067299      1.39634510
  C        2.08449473      3.45448454      3.63131670
  H        2.86511237      2.69060714      3.75313176
  H        1.21030437      3.09641974      4.18580881
  C        3.44297117      3.76906111      0.26304503
  H        4.28986508      4.30171748     -0.17109300
  C        0.45755714      4.41915998      1.93296670
  H       -0.35840898      4.06958667      2.57326903
  H        0.64314850      5.46441207      2.19222069
  H        0.11148772      4.40086754      0.89490734
  C        3.44031803      5.50744984      2.03564435
  H        4.32454541      5.84931764      1.48237065
  H        2.69969296      6.31773749      1.97982879
  C        2.57750204      4.76211512      4.26812761
  H        1.78959919      5.52566330      4.26710653
  H        2.84571223      4.58984756      5.31668074
  C       -2.16643891     -2.23987855     -1.70746335
  H       -2.34240313     -1.18413373     -1.93932318
  H       -1.75120714     -2.68416839     -2.62217314
  C        3.78376598      5.31386602      3.51957214
  H        4.61596728      4.59542248      3.60344917
  C       -0.60492604     -3.82891707     -0.49865549
  H       -0.03653866     -4.09401828     -1.39911391
  H       -1.42552646     -4.54710708     -0.40388608
  H        0.05491861     -3.96875209      0.36475797
  C       -3.53427349     -2.89893358     -1.42943055
  H       -4.09505704     -2.90808100     -2.37245775
  H       -3.39283823     -3.95120055     -1.15519068
  C       -4.37105651     -2.18434753     -0.35460291
  H       -4.47865575     -1.12810204     -0.64165190
  H       -3.82366934     -2.18580559      0.59740253
  C       -5.78326145     -2.75912248     -0.09036514
  H       -6.22238406     -2.12707577      0.69576696
  C       -5.74587822     -4.19621571      0.45592930
  H       -5.09607891     -4.27205325      1.33576958
  H       -6.74809930     -4.52657165      0.75193461
  H       -5.37723353     -4.90494707     -0.29454674
  C       -6.70662353     -2.65816776     -1.31598911
  H       -6.74104342     -1.63423513     -1.70651944
  H       -7.73045831     -2.95082293     -1.05648636
  H       -6.37605044     -3.31536047     -2.12846061



