%Mem=256MB 
%NProc=12 

#P HF/6-31G* SCF(Conver=6) NoSymm Test 
   Pop=mk IOp(6/33=2) GFInput GFPrint 

MEP - Input generated by R.E.D.-III.x MOLECULE 

0 1 
  O        4.19385516      6.54927288      4.13699024
  H        4.97825536      6.89614931      3.69163911
  C        0.00000000      0.00000000      0.00000000
  C        1.34830264      0.61723180     -0.47360718
  H        2.13066539      0.00000000     -0.00000000
  C        1.61840575      2.05146444      0.00000000
  H        0.86562592      2.72585633     -0.43166409
  C        1.53479799      2.11986955      1.54844962
  H        2.39138932      1.52998601      1.91489745
  C        0.12075921     -1.40665062     -0.68328612
  H        0.93889448     -1.90068731     -0.14098103
  C        0.02232765      0.01593903      1.54076366
  H        0.82404367     -0.64840632      1.89279712
  H       -0.91416483     -0.37358892      1.95747592
  C        1.75196222      3.57205267      2.10254912
  C        1.40052159      0.30506303     -1.98023209
  H        2.42516621      0.27786189     -2.36429072
  H        0.86880633      1.07492292     -2.55313651
  C        0.25837052      1.43644464      2.09413517
  H       -0.61950657      2.05030236      1.86722355
  H        0.31066023      1.37869446      3.18717165
  C        0.68808923     -1.07286043     -2.10034262
  H       -0.11034702     -1.03216420     -2.84812912
  H        1.37496366     -1.86057040     -2.42909904
  C        3.00064879      2.53330217     -0.46948658
  H        2.98080100      2.74207133     -1.54743609
  H        3.73569954      1.72083114     -0.34401767
  C       -1.02183328     -2.46215536     -0.72252775
  H       -0.59594740     -3.27896152     -1.32571667
  C       -1.21472467      0.80302967     -0.52153829
  H       -2.13860505      0.45723713     -0.04895847
  H       -1.12418716      1.86984626     -0.30267687
  H       -1.34261408      0.70633215     -1.60277089
  C        2.93741190      4.23926529      1.39087462
  C        2.09006527      3.47889131      3.62334272
  H        2.86022197      2.70628121      3.75609967
  H        1.20712093      3.13489549      4.17291281
  C        3.48174988      3.75160503      0.26628500
  H        4.33967135      4.26951374     -0.16404677
  C        0.49018503      4.45441901      1.90596944
  H       -0.33626035      4.11704688      2.53935419
  H        0.68640118      5.49816743      2.16348768
  H        0.15386780      4.43681877      0.86469435
  C        3.48633290      5.50331271      2.02599405
  H        4.38015367      5.82932834      1.47859809
  H        2.75714214      6.32296705      1.95750973
  C        2.59414938      4.78421246      4.25615800
  H        1.81613411      5.55771652      4.24372781
  H        2.85134028      4.61528009      5.30800961
  C       -1.38426265     -3.07179752      0.65374012
  H       -1.80662350     -2.28708637      1.29417604
  H       -2.20482458     -3.78371238      0.49086753
  C        3.81366477      5.31581084      3.51453792
  H        4.63611489      4.58774357      3.61081445
  C       -2.32326455     -2.05385488     -1.44237064
  H       -2.94466157     -1.39560541     -0.82829125
  H       -2.91815343     -2.94830407     -1.65990145
  H       -2.13964720     -1.54770733     -2.39456461
  C       -0.26190376     -3.78591279      1.43198340
  H        0.51494039     -3.06391339      1.71006271
  H       -0.68287665     -4.13671978      2.38299523
  C        0.41850999     -4.96506805      0.71014292
  H        1.20355588     -5.36430483      1.36943345
  H        0.94166737     -4.59198746     -0.18077186
  C       -0.49297873     -6.13525811      0.28371723
  H       -1.26898430     -5.74073268     -0.38818418
  C       -1.19782548     -6.79657189      1.47884251
  H       -1.84667503     -6.09683983      2.01535583
  H       -1.82014166     -7.63665006      1.15007337
  H       -0.46376296     -7.18764756      2.19543457
  C        0.31488217     -7.17589329     -0.50844545
  H        0.79360462     -6.72680218     -1.38630233
  H       -0.32415685     -7.99514736     -0.85724010
  H        1.10574326     -7.61339799      0.11440705



