%Mem=256MB 
%NProc=12 

#P HF/6-31G* SCF(Conver=6) NoSymm Test 
   Pop=mk IOp(6/33=2) GFInput GFPrint 

MEP - Input generated by R.E.D.-III.x MOLECULE 

0 1 
  O        4.99592034     -0.22215113     -7.25519860
  H        5.94727909     -0.30942405     -7.10941275
  C        0.00000000      0.00000000      0.00000000
  C        1.55452575     -0.00000000     -0.00000000
  H        1.84031900      1.06615452      0.00000000
  C        2.21300214     -0.60347478     -1.24745801
  H        1.94634687     -1.66758177     -1.31831547
  C        1.70950733      0.13320394     -2.51644064
  H        2.11469027      1.15608455     -2.44251701
  C       -0.26825539      0.64650857      1.40331343
  H       -0.01588120      1.71154748      1.29275033
  C       -0.43587064      0.82112767     -1.23080308
  H       -0.11097233      1.86249286     -1.09157334
  H       -1.52531977      0.84671417     -1.33591201
  C        2.30449683     -0.46411805     -3.83996759
  C        1.93764091     -0.54971369      1.38292970
  H        2.93303023     -0.22358502      1.70065969
  H        1.95323205     -1.64669770      1.37378419
  C        0.16866019      0.26442536     -2.53658073
  H       -0.28484549     -0.71105243     -2.74201173
  H       -0.13481342      0.91635642     -3.36353969
  C        0.81628668     -0.01513089      2.31699477
  H        0.37564177     -0.83236671      2.90014395
  H        1.20783944      0.70334121      3.04392109
  C        3.74481962     -0.50748644     -1.16141520
  H        4.12834057     -1.23716504     -0.43586539
  H        4.02898326      0.47931412     -0.75932005
  C       -1.68704313      0.57091507      2.02016597
  H       -1.93239446     -0.49393488      2.14518608
  C       -0.59392395     -1.42596439     -0.05797830
  H       -1.68724334     -1.38662613     -0.10950145
  H       -0.25056487     -1.98387068     -0.93254039
  H       -0.33095379     -2.01659900      0.82488625
  C        3.80996572     -0.71748322     -3.67682088
  C        2.10911802      0.57592815     -4.98699944
  H        2.43546146      1.55825237     -4.61786058
  H        1.04208185      0.66927476     -5.21659143
  C        4.42496556     -0.71453232     -2.48496595
  H        5.50299498     -0.87702029     -2.45478329
  C        1.61314428     -1.79870317     -4.22773287
  H        0.57430658     -1.63740319     -4.53238504
  H        2.12079671     -2.28532637     -5.06422575
  H        1.62008318     -2.50480976     -3.39163385
  C        4.59681265     -0.97633275     -4.94822826
  H        5.66546433     -1.04968974     -4.70847233
  H        4.30716046     -1.93664413     -5.39786746
  C        2.87299678      0.26299404     -6.28184899
  H        2.50546469     -0.66065501     -6.74610169
  H        2.71639056      1.06496039     -7.01218520
  C       -1.73930538      1.17688561      3.44953808
  H       -2.75094115      1.00284705      3.84449363
  H       -1.06453671      0.61151483      4.10212740
  C        4.36378881      0.10636963     -6.01186032
  H        4.76231242      1.06478386     -5.63985744
  C       -2.78410773      1.18883802      1.13281118
  H       -2.52967047      2.20497348      0.81177965
  H       -3.73359214      1.24109884      1.67876108
  H       -2.96108069      0.59643537      0.23168776
  C       -1.42619042      2.67840798      3.56719832
  H       -0.38566044      2.87070556      3.27753241
  H       -2.04311550      3.23650558      2.85188367
  C       -1.69264333      3.26566223      4.96655400
  H       -2.75275467      3.10735251      5.21235013
  H       -1.55203909      4.35599699      4.92282947
  C       -0.83692391      2.71909544      6.12928463
  H       -0.97291419      1.62919835      6.17636413
  C       -1.32511996      3.30128928      7.46560270
  H       -2.38315154      3.07291015      7.63819580
  H       -0.75287922      2.89783978      8.30883616
  H       -1.21361493      4.39321183      7.48048963
  C        0.66176473      3.00018839      5.93636289
  H        1.05601270      2.53471090      5.02730007
  H        1.24433328      2.61636667      6.78161787
  H        0.84912632      4.07971264      5.86661245



