%Mem=256MB 
%NProc=12 

#P HF/6-31G* SCF(Conver=6) NoSymm Test 
   Pop=mk IOp(6/33=2) GFInput GFPrint 

MEP - Input generated by R.E.D.-III.x MOLECULE 

0 1 
  O        4.99674679     -0.22159064     -7.25488840
  H        5.94795777     -0.31039008     -7.10908288
  C        0.00000000      0.00000000      0.00000000
  C        1.55452916     -0.00000000      0.00000000
  H        1.84036878      1.06615542      0.00000000
  C        2.21276517     -0.60339529     -1.24761008
  H        1.94533385     -1.66727066     -1.31908161
  C        1.71000252      0.13440781     -2.51620125
  H        2.11602061      1.15691570     -2.44149708
  C       -0.26789175      0.64551572      1.40383174
  H       -0.01445472      1.71031834      1.29346867
  C       -0.43599675      0.82166727     -1.23038568
  H       -0.11226497      1.86329862     -1.09022134
  H       -1.52547850      0.84632280     -1.33596965
  C        2.30463434     -0.46248832     -3.84020003
  C        1.93784367     -0.55003464      1.38278536
  H        2.93299434     -0.22334987      1.70072490
  H        1.95425863     -1.64702389      1.37291933
  C        0.16929222      0.26649287     -2.53658100
  H       -0.28450825     -0.70856075     -2.74332779
  H       -0.13374550      0.91945931     -3.36291162
  C        0.81603073     -0.01700687      2.31716881
  H        0.37507594     -0.83525823      2.89856677
  H        1.20621969      0.70078714      3.04572875
  C        3.74465941     -0.50849596     -1.16142029
  H        4.12768980     -1.23865459     -0.43610221
  H        4.02935167      0.47800545     -0.75897109
  C       -1.68685771      0.57132597      2.02031063
  H       -1.93801866     -0.49324427      2.13549444
  C       -0.59451492     -1.42570178     -0.05866481
  H       -1.68793543     -1.38548192     -0.10844647
  H       -0.25284288     -1.98296519     -0.93430216
  H       -0.33056847     -2.01753142      0.82311285
  C        3.80969122     -0.71747285     -3.67689910
  C        2.11078542      0.57885598     -4.98634173
  H        2.43833843      1.56037596     -4.61620142
  H        1.04392434      0.67377919     -5.21599541
  C        4.42462246     -0.71556128     -2.48499553
  H        5.50250200     -0.87906328     -2.45489046
  C        1.61165904     -1.79593957     -4.22899298
  H        0.57294547     -1.63324273     -4.53340642
  H        2.11863195     -2.28266907     -5.06581418
  H        1.61775193     -2.50260945     -3.39333692
  C        4.59658325     -0.97642258     -4.94826259
  H        5.66508615     -1.05107494     -4.70826085
  H        4.30601390     -1.93614500     -5.39857201
  C        2.87449004      0.26599340     -6.28136405
  H        2.50573427     -0.65682135     -6.74631806
  H        2.71900680      1.06871747     -7.01111001
  C       -1.73650673      1.16492847      3.45387997
  H       -2.74693715      0.98878803      3.85002381
  H       -1.05980080      0.59872565      4.10614983
  C        4.36502981      0.10716826     -6.01138220
  H        4.76487179      1.06486292     -5.63893954
  C       -2.77995157      1.20511979      1.13943897
  H       -2.51963663      2.22474197      0.83406507
  H       -3.73000348      1.25450229      1.68468599
  H       -2.95843285      0.62636096      0.22972908
  C       -1.41415743      2.66239481      3.59221581
  H       -0.39564022      2.85523455      3.23359693
  H       -2.08454563      3.24471420      2.94868539
  C       -1.54715572      3.14556439      5.04598499
  H       -0.88810382      2.53540626      5.68070821
  H       -2.57125012      2.94160721      5.39091827
  C       -1.23305934      4.63617345      5.31274606
  H       -1.38716122      4.78800850      6.39140786
  C       -2.19688478      5.58534521      4.58147751
  H       -3.24258772      5.33751603      4.79869897
  H       -2.02926302      6.62398211      4.88870574
  H       -2.06151118      5.54056143      3.49466354
  C        0.23127247      4.99681705      5.01198252
  H        0.92304851      4.32839387      5.53812605
  H        0.45303798      6.02252151      5.32824042
  H        0.45239605      4.93105036      3.94039259



