%Mem=256MB 
%NProc=12 

#P HF/6-31G* SCF(Conver=6) NoSymm Test 
   Pop=mk IOp(6/33=2) GFInput GFPrint 

MEP - Input generated by R.E.D.-III.x MOLECULE 

0 1 
  O        0.45708066     -3.38822852      7.25637649
  H        0.29307466     -4.32939395      7.11059881
  C        1.50824284      1.50095282      0.00000000
  C        1.10388616     -0.00000000     -0.00000000
  H        0.00000000      0.00000000      0.00000000
  C        1.51828090     -0.79452155      1.24562738
  H        2.61530812     -0.81550303      1.31215708
  C        0.94463298     -0.11780739      2.51810073
  H       -0.14894053     -0.24159288      2.44957284
  C        0.94985211      1.93460953     -1.39982073
  H       -0.14478015      1.99166894     -1.28762275
  C        0.83477521      2.13361770      1.23532642
  H       -0.25585920      2.09045663      1.10076306
  H        1.09281368      3.19214529      1.34095828
  C        1.37284288     -0.84945901      3.83872362
  C        1.53650142     -0.50891473     -1.38303277
  H        0.97926307     -1.39745807     -1.69617576
  H        2.59773457     -0.78711650     -1.37843445
  C        1.22103538      1.40354736      2.53833617
  H        2.28233186      1.58599019      2.73781752
  H        0.67578547      1.86637419      3.36866488
  C        1.27879622      0.70544907     -2.31697062
  H        2.15706800      0.91657096     -2.93838390
  H        0.45615266      0.49992315     -3.00823738
  C        1.02518226     -2.24801778      1.16019548
  H        1.62584902     -2.80799915      0.43112531
  H       -0.00356490     -2.26422896      0.76319570
  C        1.40756188      3.27593902     -2.02749141
  H        2.49021732      3.19870094     -2.20605970
  C        3.04121893      1.69827300      0.05088759
  H        3.29296418      2.76222601      0.10957140
  H        3.49386789      1.21224528      0.91865040
  H        3.53620125      1.29618302     -0.83834100
  C        1.22408269     -2.36856707      3.67454199
  C        0.42569022     -0.39097568      4.99115785
  H       -0.60966290     -0.44963745      4.62738047
  H        0.61483296      0.66330856      5.22073339
  C        1.05435896     -2.96006356      2.48284781
  H        0.92982044     -4.04312250      2.45210645
  C        2.84352596     -0.52998898      4.21909707
  H        2.95996822      0.51451472      4.52489603
  H        3.18596737     -1.14822955      5.05260210
  H        3.51889803     -0.71896477      3.37894825
  C        1.27565562     -3.19728565      4.94469393
  H        1.06635980     -4.24777220      4.70480123
  H        2.28080263     -3.16873279      5.38871066
  C        0.53585820     -1.21133564      6.28458386
  H        1.52587619     -1.09755752      6.74357991
  H       -0.19358768     -0.85195739      7.01931662
  C        0.72164837      3.50677277     -3.40991947
  H        0.21441218      2.59176319     -3.73295998
  H       -0.07287512      4.25772530     -3.29401702
  C        0.29726606     -2.69120818      6.01456072
  H       -0.73403717     -2.82601502      5.64853619
  C        1.16671756      4.49252308     -1.11438280
  H        0.11725256      4.54015771     -0.79810636
  H        1.39116546      5.42413009     -1.64286269
  H        1.78610344      4.47097904     -0.21411513
  C        1.66015303      3.93983244     -4.55406550
  H        2.43181732      3.16870688     -4.68142001
  H        1.07773306      3.94489298     -5.48444522
  C        2.32518030      5.31265347     -4.36502647
  H        2.93982116      5.29652711     -3.45512268
  H        1.53982704      6.06247758     -4.18988668
  C        3.21502551      5.80770522     -5.53054886
  H        3.60530126      6.78667206     -5.21501173
  C        2.42348491      6.03720310     -6.82888957
  H        1.55994877      6.69118616     -6.65946655
  H        3.05471662      6.50868554     -7.59079896
  H        2.05277264      5.09580881     -7.25037653
  C        4.42937075      4.89707716     -5.77761119
  H        5.00208041      4.73675996     -4.85648811
  H        5.10505908      5.34113196     -6.51752313
  H        4.12770548      3.91485918     -6.15920630



