%Mem=256MB 
%NProc=12 

#P HF/6-31G* SCF(Conver=6) NoSymm Test 
   Pop=mk IOp(6/33=2) GFInput GFPrint 

MEP - Input generated by R.E.D.-III.x MOLECULE 

0 1 
  O        0.43896408     -3.39503799      7.25056828
  H        0.27666522     -4.33624535      7.10315414
  C        1.50756034      1.50157900      0.00000000
  C        1.10387008      0.00000000     -0.00000000
  H        0.00000000      0.00000000      0.00000000
  C        1.51742949     -0.79432552      1.24599457
  H        2.61435216     -0.81250156      1.31563679
  C        0.93842142     -0.12005884      2.51697333
  H       -0.15468298     -0.24591081      2.44484443
  C        0.95229239      1.93328093     -1.40252876
  H       -0.14273367      1.98639659     -1.29248984
  C        0.82930649      2.13204253      1.23441702
  H       -0.26079009      2.08825102      1.09603668
  H        1.08546946      3.19059058      1.34353560
  C        1.36383258     -0.85170067      3.83840241
  C        1.53556721     -0.51064196     -1.38231517
  H        0.97385763     -1.39627846     -1.69574538
  H        2.59528458     -0.79464180     -1.37694351
  C        1.21201831      1.40156063      2.53837044
  H        2.27227013      1.58578881      2.74196808
  H        0.66297403      1.86339924      3.36679992
  C        1.28614070      0.70459352     -2.31697155
  H        2.17157456      0.91450311     -2.92883492
  H        0.46924117      0.50442092     -3.01668123
  C        1.02828413     -2.24903826      1.15777539
  H        1.63299932     -2.80697200      0.43048290
  H        0.00105696     -2.26752058      0.75692949
  C        1.40290572      3.27917350     -2.02915446
  H        2.48630065      3.21506148     -2.20286999
  C        3.03964529      1.70208014      0.05453110
  H        3.28842841      2.76710687      0.10876347
  H        3.49088464      1.22103892      0.92579396
  H        3.53776591      1.29709783     -0.83164556
  C        1.21830019     -2.37101829      3.67272961
  C        0.41230102     -0.39558831      4.98819756
  H       -0.62174458     -0.45543797      4.62094489
  H        0.59915182      0.65873488      5.21946862
  C        1.05418269     -2.96195461      2.47996826
  H        0.93173841     -4.04522154      2.44798330
  C        2.83283159     -0.52999602      4.22336030
  H        2.94683548      0.51492970      4.52864871
  H        3.17328429     -1.14702340      5.05858675
  H        3.51119422     -0.71883159      3.38554704
  C        1.26648688     -3.20070998      4.94236406
  H        1.05970151     -4.25131256      4.70078925
  H        2.26987132     -3.17104044      5.39024390
  C        0.51917601     -1.21709359      6.28121384
  H        1.50754846     -1.10252042      6.74354560
  H       -0.21316439     -0.85931644      7.01384218
  C        0.71169396      3.47304216     -3.40350804
  H        0.87551896      2.57984955     -4.01762399
  H       -0.37397574      3.52946178     -3.23323681
  C        0.28328086     -2.69692970      6.00884519
  H       -0.74641383     -2.83249614      5.63855305
  C        1.13845733      4.49250072     -1.12154330
  H        0.07610249      4.56016915     -0.85472015
  H        1.41354155      5.42746533     -1.61901049
  H        1.71271542      4.44603461     -0.19385451
  C        1.13924360      4.69672936     -4.23860795
  H        0.51230767      4.71002900     -5.13913772
  H        0.90549869      5.62276475     -3.70050722
  C        2.62082086      4.68779059     -4.65006601
  H        2.84933592      3.71787153     -5.11617494
  H        3.24847061      4.74609562     -3.75076201
  C        3.07078763      5.80829062     -5.61779622
  H        4.14721087      5.65031083     -5.78106054
  C        2.90761218      7.21294099     -5.01348474
  H        3.39976980      7.28695078     -4.03651885
  H        3.34988675      7.97272869     -5.66794967
  H        1.85182164      7.47396865     -4.87717551
  C        2.38994671      5.71657556     -6.99362412
  H        2.51062480      4.71921279     -7.43271208
  H        2.82321678      6.44274341     -7.69091839
  H        1.31608455      5.92675559     -6.93052547



