%Mem=256MB 
%NProc=12 

#P HF/6-31G* SCF(Conver=6) NoSymm Test 
   Pop=mk IOp(6/33=2) GFInput GFPrint 

MEP - Input generated by R.E.D.-III.x MOLECULE 

0 1 
  O        4.97218010     -0.22087712     -7.26801715
  H        5.92458526     -0.30150147     -7.12528006
  C        0.00000000      0.00000000      0.00000000
  C        1.55657084      0.00000000     -0.00000000
  H        1.84515196      1.06496710      0.00000000
  C        2.21503440     -0.60057654     -1.24884093
  H        1.96089851     -1.66757561     -1.31759722
  C        1.69956602      0.12829786     -2.51870596
  H        2.09767679      1.15436298     -2.45008671
  C       -0.24547086      0.66680402      1.39789047
  H        0.09974279      1.70166149      1.26824642
  C       -0.44281178      0.81423541     -1.23125885
  H       -0.11994094      1.85715735     -1.10387169
  H       -1.53507869      0.83248005     -1.32565041
  C        2.29426845     -0.46956324     -3.84232417
  C        1.93631438     -0.55332046      1.38536966
  H        2.93079694     -0.22691140      1.70570543
  H        1.95295779     -1.65023405      1.37211715
  C        0.15713350      0.25003598     -2.53580298
  H       -0.29226350     -0.72910536     -2.73170640
  H       -0.15161451      0.89430439     -3.36673776
  C        0.81112198     -0.02268352      2.31969754
  H        0.36535081     -0.84193400      2.89265197
  H        1.19493663      0.69191506      3.05616565
  C        3.74621990     -0.48957803     -1.16932766
  H        4.13907244     -1.21216975     -0.44167341
  H        4.02321162      0.50175922     -0.77348472
  C       -1.64296949      0.79856257      2.06999304
  H       -1.41813888      1.27378889      3.03922691
  C       -0.57655718     -1.43308634     -0.07572051
  H       -1.65834821     -1.40606599     -0.23562187
  H       -0.14569264     -2.00449875     -0.90160644
  H       -0.39390131     -2.00269319      0.83917067
  C        3.80212499     -0.71128327     -3.68385176
  C        2.08735349      0.56472842     -4.99270490
  H        2.40702078      1.55089381     -4.62801946
  H        1.01899953      0.64888558     -5.21961453
  C        4.42221057     -0.69783334     -2.49468266
  H        5.50154178     -0.85211715     -2.46850837
  C        1.61083338     -1.81031031     -4.22251250
  H        0.56862619     -1.65764819     -4.52004639
  H        2.11648397     -2.29440854     -5.06166614
  H        1.62909179     -2.51472273     -3.38515507
  C        4.58587137     -0.97025444     -4.95714538
  H        5.65581499     -1.03614353     -4.72108027
  H        4.30034805     -1.93393815     -5.40218657
  C        2.84954117      0.25320757     -6.28897731
  H        2.48682753     -0.67416759     -6.74962147
  H        2.68510930      1.05203760     -7.02103879
  C       -2.62150145      1.75462476      1.34694853
  H       -2.85683154      1.36029259      0.34952290
  H       -3.57000630      1.73420347      1.90282055
  C        4.34218238      0.10738778     -6.02352442
  H        4.73564208      1.06957809     -5.65587936
  C       -2.37972964     -0.51399321      2.40634920
  H       -2.84461971     -0.96248077      1.52362268
  H       -3.18160215     -0.31048990      3.12516487
  H       -1.72408966     -1.26513568      2.85618142
  C       -2.17566526      3.22051229      1.22823615
  H       -1.89069524      3.58436288      2.22494560
  H       -1.27771089      3.29119920      0.60448603
  C       -3.27902037      4.11594756      0.64088624
  H       -4.17446660      4.03053482      1.27341623
  H       -3.56595694      3.71852443     -0.34354035
  C       -2.94151763      5.61644951      0.47842741
  H       -3.84190430      6.08285025      0.05178594
  C       -1.79317045      5.86297758     -0.51413012
  H       -1.98657149      5.37626837     -1.47733686
  H       -1.66379944      6.93500138     -0.70196484
  H       -0.83925878      5.48156173     -0.13192662
  C       -2.66773177      6.31092196      1.82283693
  H       -3.48764153      6.14575021      2.53175908
  H       -2.55669847      7.39282669      1.68725100
  H       -1.74512506      5.94384029      2.28709612



