%Mem=256MB 
%NProc=12 

#P HF/6-31G* SCF(Conver=6) NoSymm Test 
   Pop=mk IOp(6/33=2) GFInput GFPrint 

MEP - Input generated by R.E.D.-III.x MOLECULE 

0 1 
  O       -3.73987554     -3.58839120     -4.13699024
  H       -3.88638527     -4.43346032     -3.69163911
  C        1.59826706      2.06719276      0.00000000
  C        1.32607007      0.60952205      0.47360718
  H        2.11445413      0.00000000      0.00000000
  C        0.00000000      0.00000000      0.00000000
  H       -0.83667443      0.56697248      0.43166409
  C       -0.08662261      0.06454488     -1.54844962
  H        0.69321094     -0.62362002     -1.91489745
  C        2.99226930      2.29081413      0.68328612
  H        3.66979470      1.61673928      0.14098103
  C        1.58821208      2.04166877     -1.54076366
  H        2.42699482      1.42478399     -1.89279712
  H        1.73925600      3.04463235     -1.95747592
  C       -1.44293369     -0.49796413     -2.10254912
  C        1.64159017      0.63448648      1.98023209
  H        1.91621720     -0.35304402      2.36429072
  H        0.76584810      0.96385130      2.55313651
  C        0.26720849      1.46851790     -2.09413517
  H       -0.54104186      2.17152634     -1.86722355
  H        0.33590629      1.43177678     -3.18717165
  C        2.80586732      1.65951899      2.10034262
  H        2.57294975      2.42431048      2.84812912
  H        3.73651747      1.18394166      2.42909904
  C       -0.13261374     -1.45779869      0.46948658
  H       -0.33997208     -1.48911976      1.54743609
  H        0.83373130     -1.97411840      0.34401767
  C        3.73951957      3.65508129      0.72252775
  H        4.63517056      3.43976665      1.32571667
  C        0.52487360      3.05118421      0.52153829
  H        0.63654048      4.03131581      0.04895847
  H       -0.48822833      2.70489078      0.30267687
  H        0.58770729      3.19869028      1.60277089
  C       -1.80307625     -1.80974191     -1.39087462
  C       -1.27063684     -0.80342527     -3.62334272
  H       -0.33446031     -1.36346206     -3.75609967
  H       -1.15079578      0.13655448     -4.17291281
  C       -1.19806902     -2.21972070     -0.26628500
  H       -1.49270428     -3.17755615      0.16404677
  C       -2.60469957      0.51245758     -1.90596944
  H       -2.47759712      1.39601680     -2.53935419
  H       -3.56981824      0.06922232     -2.16348768
  H       -2.66910176      0.84301984     -0.86469435
  C       -2.89648293     -2.64854582     -2.02599405
  H       -2.99624446     -3.59472202     -1.47859809
  H       -3.86837761     -2.13965179     -1.95750973
  C       -2.41495014     -1.60872719     -4.25615800
  H       -3.35389786     -1.04128251     -4.24372781
  H       -2.18874175     -1.81732984     -5.30800961
  C        4.24319627      4.15440923     -0.65374012
  H        3.37953818      4.37407936     -1.29417604
  H        4.73510917      5.12299910     -0.49086753
  C       -2.63526548     -2.92070119     -3.51453792
  H       -1.72963594     -3.54226478     -3.61081445
  C        3.02809028      4.81882567      1.44237064
  H        2.23890693      5.26223999      0.82829125
  H        3.75177263      5.61268710      1.65990145
  H        2.58150506      4.51805612      2.39456461
  C        5.20794704      3.23849108     -1.43198340
  H        4.69565870      2.30987349     -1.71006271
  H        5.44631620      3.73191165     -2.38299523
  C        6.51681610      2.86401572     -0.71014292
  H        7.09434926      2.19907775     -1.36943345
  H        6.28159266      2.26605860      0.18077186
  C        7.43132371      4.03184802     -0.28371723
  H        6.86055171      4.68915638      0.38818418
  C        7.90217676      4.87591098     -1.47884251
  H        7.06609577      5.33591021     -2.01535583
  H        8.56646311      5.68321041     -1.15007337
  H        8.45944040      4.25846042     -2.19543457
  C        8.63667528      3.50016351      0.50844545
  H        8.31694062      2.92690287      1.38630233
  H        9.27670651      4.31864266      0.85724010
  H        9.25274518      2.83885458     -0.11440705



