%Mem=256MB 
%NProc=12 

#P HF/6-31G* SCF(Conver=6) NoSymm Test 
   Pop=mk IOp(6/33=2) GFInput GFPrint 

MEP - Input generated by R.E.D.-III.x MOLECULE 

0 1 
  O        5.00576693     -0.24152378     -7.25060044
  H        5.95676392     -0.33022826     -7.10334392
  C        0.00000000      0.00000000      0.00000000
  C        1.55484631      0.00000000     -0.00000000
  H        1.84149163      1.06601135      0.00000000
  C        2.21443512     -0.60594680     -1.24575655
  H        1.94679103     -1.66989387     -1.31471712
  C        1.71366335      0.12813165     -2.51693481
  H        2.11940240      1.15093480     -2.44499334
  C       -0.27285888      0.64798558      1.40282414
  H       -0.04072013      1.71940098      1.29270372
  C       -0.43269983      0.81888540     -1.23422604
  H       -0.10707885      1.86012954     -1.09586096
  H       -1.52141863      0.84648360     -1.34343185
  C        2.30965024     -0.47277975     -3.83839758
  C        1.93598350     -0.54970489      1.38221640
  H        2.93733447     -0.23788047      1.69553370
  H        1.93433412     -1.64679322      1.37684885
  C        0.17327380      0.25948780     -2.53828361
  H       -0.28010676     -0.71648764     -2.74177714
  H       -0.13008712      0.90967737     -3.36667582
  C        0.82783985      0.00750503      2.31704431
  H        0.39594772     -0.79233729      2.93050530
  H        1.23428099      0.74525680      3.01528746
  C        3.74629270     -0.51138440     -1.15783632
  H        4.12822737     -1.23990757     -0.43030910
  H        4.03092422      0.47598255     -0.75747515
  C       -1.68904657      0.56140595      2.02937156
  H       -1.91291071     -0.50159458      2.20802487
  C       -0.59130199     -1.42753701     -0.05445408
  H       -1.68451886     -1.39164426     -0.10529012
  H       -0.24657315     -1.98736373     -0.92732719
  H       -0.32684765     -2.01460490      0.83033589
  C        3.81448331     -0.72740330     -3.67273646
  C        2.11679818      0.56496229     -4.98796690
  H        2.44328850      1.54780136     -4.62035023
  H        1.05019994      0.65859136     -5.21942336
  C        4.42789859     -0.72217073     -2.48006197
  H        5.50572775     -0.88567811     -2.44809270
  C        1.61711974     -1.80748430     -4.22387793
  H        0.57827926     -1.64592364     -4.52847268
  H        2.12399497     -2.29596886     -5.05976050
  H        1.62375432     -2.51223746     -3.38660654
  C        4.60273723     -0.99003784     -4.94246568
  H        5.67095305     -1.06428366     -4.70105733
  H        4.31244016     -1.95092965     -5.39043056
  C        2.88237528      0.24867431     -6.28105109
  H        2.51437512     -0.67536655     -6.74415432
  H        2.72778566      1.04943317     -7.01314400
  C       -1.70765329      1.26770481      3.40828863
  H       -0.86062885      0.91303579      4.00731146
  H       -1.53867004      2.34270844      3.24940434
  C        4.37255166      0.09066149     -6.00877067
  H        4.77199939      1.04935423     -5.63847202
  C       -2.79240324      1.13191160      1.12108792
  H       -2.57831376      2.17388359      0.85120588
  H       -3.76570633      1.11181554      1.62021254
  H       -2.89890507      0.56367315      0.19463612
  C       -2.98619214      1.05273697      4.23636979
  H       -3.84366245      1.53608901      3.75444052
  H       -3.21724714     -0.02196632      4.25119381
  C       -2.87909571      1.53472267      5.69507379
  H       -2.06445446      0.98308784      6.18636558
  H       -3.79991754      1.25287355      6.22712412
  C       -2.64235021      3.04488317      5.91014417
  H       -1.71361839      3.32451281      5.39237790
  C       -2.44353344      3.34290058      7.40494644
  H       -1.61004492      2.76475387      7.82029914
  H       -2.23280499      4.40496123      7.57490150
  H       -3.34418546      3.08700081      7.97787321
  C       -3.77949463      3.90482855      5.33602044
  H       -3.89200905      3.77328159      4.25495802
  H       -3.59616205      4.96947757      5.52057924
  H       -4.73785760      3.64670284      5.80531563



