%Mem=256MB 
%NProc=12 

#P HF/6-31G* SCF(Conver=6) NoSymm Test 
   Pop=mk IOp(6/33=2) GFInput GFPrint 

MEP - Input generated by R.E.D.-III.x MOLECULE 

0 1 
  O        4.20517400      6.55680990      4.12215468
  H        4.98665426      6.90461778      3.67242147
  C        0.00000000      0.00000000      0.00000000
  C        1.34545843      0.61917736     -0.47213566
  H        2.12798413      0.00000000      0.00000000
  C        1.61290995      2.05451817      0.00000000
  H        0.85080794      2.72304824     -0.42506964
  C        1.54207961      2.12238346      1.54794586
  H        2.40336512      1.53547789      1.90804856
  C        0.09007396     -1.40688255     -0.68743415
  H        0.82439909     -1.98540957     -0.10424744
  C        0.03018595      0.01562629      1.54247138
  H        0.83331091     -0.65339408      1.88427506
  H       -0.89975850     -0.37179485      1.97065978
  C        1.75726672      3.57518397      2.10094738
  C        1.39789930      0.30972990     -1.97550199
  H        2.41956645      0.30960603     -2.36829707
  H        0.84059112      1.06339930     -2.54554333
  C        0.27178169      1.43409501      2.09885601
  H       -0.60837509      2.04827675      1.88074530
  H        0.33061813      1.37157997      3.19137703
  C        0.72628682     -1.08679714     -2.08502483
  H       -0.04336563     -1.09273398     -2.86590845
  H        1.45661282     -1.85057314     -2.36807280
  C        2.98836237      2.54377019     -0.48184862
  H        2.95733843      2.75559394     -1.55894080
  H        3.72764759      1.73367180     -0.36597823
  C       -1.18184418     -2.28510967     -0.80626167
  H       -1.89277792     -1.74351755     -1.44762990
  C       -1.22562228      0.77905236     -0.53129786
  H       -2.15458471      0.35644545     -0.13481114
  H       -1.20340638      1.83323488     -0.24454787
  H       -1.29269752      0.74325326     -1.62290064
  C        2.93619097      4.24625006      1.38211369
  C        2.10370446      3.48314661      3.61986792
  H        2.87665005      2.71265100      3.74868580
  H        1.22456454      3.13672419      4.17402208
  C        3.47271811      3.76163002      0.25249527
  H        4.32624660      4.28195676     -0.18364728
  C        0.49156059      4.45343552      1.91080572
  H       -0.32990952      4.11482992      2.54999349
  H        0.68626792      5.49827781      2.16502239
  H        0.14890520      4.43291968      0.87161761
  C        3.48709134      5.51067795      2.01491753
  H        4.37735076      5.83816811      1.46258474
  H        2.75649581      6.32946087      1.95090124
  C        2.60784097      4.78997423      4.24937826
  H        1.82812235      5.56178666      4.23962421
  H        2.87028199      4.62258658      5.30017716
  C       -0.86003601     -3.64014624     -1.50862246
  H        0.12885647     -3.59312501     -1.97620578
  H       -0.78839269     -4.42948651     -0.74661397
  C        3.82282215      5.32309452      3.50149583
  H        4.64647434      4.59580100      3.59313983
  C       -1.87106935     -2.54747550      0.54584464
  H       -1.16094834     -2.96698374      1.26928120
  H       -2.68670182     -3.26790873      0.43309133
  H       -2.29596569     -1.64032644      0.98288923
  C       -1.85935392     -4.07679026     -2.59771061
  H       -1.89238412     -3.29670097     -3.36982641
  H       -1.46006864     -4.97523402     -3.09035199
  C       -3.28239392     -4.38567130     -2.10805143
  H       -3.74546800     -3.47783348     -1.69532467
  H       -3.21792904     -5.10213746     -1.27638745
  C       -4.22601925     -4.97075812     -3.17957222
  H       -3.73104123     -5.85506891     -3.61027561
  C       -4.50456874     -3.98284955     -4.32419088
  H       -3.59049950     -3.69262092     -4.85167734
  H       -5.18574268     -4.42159329     -5.06219346
  H       -4.97542895     -3.06793276     -3.94120869
  C       -5.54389802     -5.43719834     -2.54083730
  H       -5.36623481     -6.17606347     -1.75097406
  H       -6.20712028     -5.89351295     -3.28456154
  H       -6.08115620     -4.59195458     -2.09167131



