%Mem=256MB 
%NProc=12 

#P HF/6-31G* SCF(Conver=6) NoSymm Test 
   Pop=mk IOp(6/33=2) GFInput GFPrint 

MEP - Input generated by R.E.D.-III.x MOLECULE 

0 1 
  O       -3.73506809     -3.61514226     -4.11845981
  H       -3.88505220     -4.45597095     -3.66629276
  C        1.60109867      2.06403984      0.00000000
  C        1.32717846      0.60819361      0.47242435
  H        2.11802921     -0.00000000      0.00000000
  C        0.00000000      0.00000000      0.00000000
  H       -0.83365910      0.57917511      0.42188679
  C       -0.07999961      0.04758670     -1.54809834
  H        0.69837193     -0.64742579     -1.90448845
  C        2.98589309      2.31935330      0.69205161
  H        3.72559397      1.74345041      0.11309532
  C        1.59728322      2.02635155     -1.54268044
  H        2.44324942      1.41016335     -1.88036468
  H        1.74655468      3.02092423     -1.97464517
  C       -1.43653739     -0.51370131     -2.10236381
  C        1.63957797      0.63025184      1.97569839
  H        1.89425026     -0.36053154      2.36505488
  H        0.77069111      0.98004427      2.54698337
  C        0.28205229      1.44506523     -2.10182310
  H       -0.52823009      2.15055889     -1.88910952
  H        0.36126157      1.39987010     -3.19394178
  C        2.82386592      1.62875058      2.08996009
  H        2.62818001      2.37916476      2.86521329
  H        3.74567554      1.11733179      2.38271494
  C       -0.14322336     -1.45143456      0.48585980
  H       -0.35785268     -1.46940195      1.56267748
  H        0.82159603     -1.97352477      0.37289934
  C        3.53644031      3.76549083      0.80484777
  H        2.83840809      4.33533437      1.43418184
  C        0.54657442      3.06482625      0.52617852
  H        0.73585124      4.06874113      0.13191296
  H       -0.46966085      2.78994110      0.23322700
  H        0.55914300      3.13717516      1.61798966
  C       -1.80460135     -1.81747353     -1.38010338
  C       -1.26017287     -0.83270402     -3.61979997
  H       -0.32574477     -1.39748027     -3.74461471
  H       -1.13468809      0.10221268     -4.17673914
  C       -1.20696318     -2.21757103     -0.24803866
  H       -1.50668186     -3.17013827      0.19044422
  C       -2.59479321      0.50320338     -1.91799219
  H       -2.46418566      1.37935956     -2.56092271
  H       -3.56145654      0.06088624     -2.17127387
  H       -2.65874586      0.84528106     -0.88037053
  C       -2.89718440     -2.65950805     -2.01249726
  H       -3.00093052     -3.60083375     -1.45749542
  H       -3.86839560     -2.14829457     -1.95194541
  C       -2.40548717     -1.63912377     -4.24918588
  H       -3.34260359     -1.06856906     -4.24303081
  H       -2.17762652     -1.85667217     -5.29886367
  C        4.91285996      3.74639189      1.51850784
  H        4.82178783      3.19344657      2.46070072
  H        5.61166322      3.16948378      0.89424411
  C       -2.63123829     -2.94453203     -3.49772608
  H       -1.72653538     -3.56865856     -3.58572834
  C        3.64700535      4.48271982     -0.55132768
  H        4.27652410      3.91367215     -1.24721726
  H        4.09321579      5.47557327     -0.43978393
  H        2.67241984      4.62426901     -1.02322265
  C        5.55674130      5.11015520      1.83970461
  H        6.54065149      4.90833736      2.28171107
  H        5.75494176      5.66275433      0.91391769
  C        4.73398834      5.97973081      2.80477695
  H        4.48072566      5.37759657      3.68993909
  H        3.77714178      6.24094005      2.33328383
  C        5.40113472      7.29062591      3.28536195
  H        4.66674575      7.77798363      3.94373505
  C        5.68932151      8.26549527      2.13148182
  H        4.78974902      8.45351120      1.53350334
  H        6.04241297      9.22970176      2.51467987
  H        6.46343174      7.87812239      1.45909434
  C        6.66388905      7.04287396      4.12734109
  H        6.46169638      6.35480146      4.95665906
  H        7.03601884      7.98081342      4.55518568
  H        7.47494533      6.61456328      3.52727885



