%Mem=256MB 
%NProc=12 

#P HF/6-31G* SCF(Conver=6) NoSymm Test 
   Pop=mk IOp(6/33=2) GFInput GFPrint 

MEP - Input generated by R.E.D.-III.x MOLECULE 

0 1 
  C        7.51674818      2.15055688     -0.05702169
  H        7.41557634      2.06718985      1.03203745
  C        6.76300863      0.98497454     -0.71688369
  H        7.15409275      0.03397224     -0.34213041
  H        6.98251599      1.01277628     -1.79580907
  C        5.26442847      1.06257088     -0.48982529
  C        4.58121151      2.38826967     -0.84855276
  C        5.41805031      3.54900801     -0.22670178
  H        5.27116794      3.53192688      0.86182623
  H        5.02395851      4.50862364     -0.57826368
  C        6.92635654      3.48491294     -0.51266549
  H        7.12047655      3.61480083     -1.58765636
  H        7.44031800      4.30587253     -0.00000000
  C        4.60705573     -0.00000000     -0.00000000
  H        5.16447343     -0.90552663      0.23237564
  C        3.12981331     -0.04435356      0.26511941
  H        2.71742677     -1.00989999     -0.05413609
  C        2.36902180      1.10026086     -0.42831485
  H        2.35430884      0.82590580     -1.49234228
  C        3.12962841      2.44253330     -0.25370855
  H        3.25094912      2.57604910      0.83128877
  C        2.30544357      3.64966140     -0.76492205
  H        2.28840018      3.65440050     -1.85941159
  H        2.80187336      4.58067434     -0.46796377
  C        0.84896783      3.68629454     -0.25857639
  H        0.84025177      3.84453702      0.82907097
  H        0.34573613      4.55140973     -0.70565161
  C        0.10431239      2.37558898     -0.57769064
  C        0.92430716      1.22678418      0.07739751
  H        0.99693836      1.49215548      1.14053377
  C        0.00000000      0.00000000      0.00000000
  H        0.23717788     -0.73750721      0.77183731
  H        0.09934156     -0.50471617     -0.96953660
  C       -1.42450104      0.60229233      0.16988736
  H       -2.08380893      0.27301670     -0.63961687
  H       -1.89663652      0.27405775      1.10216317
  C       -1.25609744      2.15469602      0.16828192
  H       -1.04318000      2.44163973      1.20912438
  C       -0.03572182      2.19721201     -2.10703802
  H        0.93065363      2.04574659     -2.59518919
  H       -0.66455107      1.34187953     -2.36747767
  H       -0.48521852      3.08587311     -2.55991544
  C       -2.56890352      2.91953278     -0.17049784
  H       -3.29630120      2.50260597      0.54567725
  C       -3.17143771      2.68752563     -1.57082243
  H       -2.64747659      3.25938452     -2.34279455
  H       -4.21996975      3.00118511     -1.58967245
  H       -3.14959319      1.63391668     -1.86376593
  C        4.57020832      2.52523487     -2.39597628
  H        4.27673675      3.53314242     -2.70391327
  H        5.55594809      2.33266160     -2.82603324
  H        3.87612493      1.81243485     -2.85192232
  O        2.85143343      0.07098668      1.68801069
  O        3.34808745     -1.13471596      2.33381263
  H        4.12266631     -0.78567098      2.80517089
  O        8.92601290      2.06657780     -0.28382103
  H        9.09377346      2.16005916     -1.23212694
  C       -2.47168070      4.42876181      0.14971341
  H       -1.93700075      4.55451580      1.10195649
  H       -1.85621682      4.92180302     -0.61328025
  C       -3.82776692      5.14611337      0.25945217
  H       -4.33121668      5.15584977     -0.71466640
  H       -4.47858281      4.56376775      0.92726655
  C       -3.74288685      6.58062685      0.81237843
  H       -3.30604254      6.54016149      1.82075206
  H       -4.76419158      6.96928528      0.93997601
  C       -2.94131992      7.60096307     -0.02373745
  H       -1.91514799      7.22257912     -0.13661212
  C       -3.52885713      7.79817876     -1.43020392
  H       -4.56554477      8.15485945     -1.37254852
  H       -2.95357367      8.54145902     -1.99396983
  H       -3.52815917      6.87088103     -2.01225959
  C       -2.85670662      8.94457920      0.71810407
  H       -3.85566013      9.37730822      0.85843070
  H       -2.25585388      9.67125177      0.15932296
  H       -2.40376843      8.82596188      1.70916487



