%Mem=256MB 
%NProc=12 

#P HF/6-31G* SCF(Conver=6) NoSymm Test 
   Pop=mk IOp(6/33=2) GFInput GFPrint 

MEP - Input generated by R.E.D.-III.x MOLECULE 

0 1 
  C        1.01330922     -0.87567364     -1.69146328
  H        1.14155757      0.09663443     -2.18281426
  C        2.25014828     -1.74288390     -1.97504280
  H        2.38761993     -1.84643338     -3.05586513
  H        2.04697717     -2.75268319     -1.58504256
  C        3.50828321     -1.18354853     -1.33670182
  C        3.43561810     -0.86113744      0.16119215
  C        2.12976413     -0.04748585      0.41943070
  H        2.26469844      0.95881090      0.00000000
  H        1.99063723      0.08171769      1.49817452
  C        0.85647559     -0.65770577     -0.18660435
  H        0.62457768     -1.62001049      0.29329444
  H        0.00000000      0.00000000      0.00000000
  C        4.60960105     -0.99809142     -2.08089595
  H        4.58078524     -1.24912730     -3.13960274
  C        5.91066591     -0.45582370     -1.56347442
  H        6.75085771     -1.01729369     -1.99135469
  C        5.99539309     -0.48533929     -0.02663861
  H        6.14511199     -1.54388579      0.22750823
  C        4.66459539      0.01087887      0.60048585
  H        4.49278302      1.01202011      0.17855709
  C        4.77249625      0.18355003      2.13544623
  H        4.78511432     -0.79653962      2.62261514
  H        3.87638733      0.69308412      2.50793973
  C        6.01441675      0.97135868      2.60019295
  H        5.94083667      2.01085730      2.25154428
  H        6.01501214      1.00551193      3.69602751
  C        7.31638224      0.35273444      2.05526312
  C        7.18275549      0.33151083      0.50475453
  H        6.98784828      1.37296481      0.21617642
  C        8.59722573      0.00000000     -0.00000000
  H        8.76195409      0.36519201     -1.01755685
  H        8.76284167     -1.08486306     -0.01599470
  C        9.52914025      0.68904338      1.03786503
  H       10.26319583     -0.02118382      1.43153368
  H       10.10380860      1.50643102      0.58898600
  C        8.60529189      1.23890386      2.17170531
  H        8.28002267      2.23243145      1.83551462
  C        7.52355662     -1.06230371      2.64277714
  H        6.76794668     -1.76984952      2.29128482
  H        8.49946766     -1.47913040      2.38115086
  H        7.45642615     -1.04181210      3.73447620
  C        9.36756658      1.50043072      3.50316388
  H       10.22174523      2.12385053      3.19108538
  C        9.97924406      0.27129922      4.20620472
  H        9.22719027     -0.30807890      4.74979509
  H       10.72428750      0.60092837      4.93929860
  H       10.48519449     -0.40604059      3.51228410
  C        3.37754735     -2.20182088      0.94393693
  H        3.12495264     -2.03768383      1.99566098
  H        2.62262568     -2.87706387      0.53415515
  H        4.33624279     -2.72788557      0.90039418
  O        6.09525755      0.92965169     -1.96565683
  O        6.27300002      0.94948892     -3.40985226
  H        5.42994561      1.33992354     -3.69404157
  O       -0.16405276     -1.41865858     -2.29429946
  H       -0.35416311     -2.27546357     -1.88697704
  C        8.58889760      2.33997364      4.54560515
  H        7.68730851      1.79745090      4.86076422
  H        9.22083982      2.40538187      5.44099532
  C        8.20381619      3.76267502      4.11156203
  H        9.10850656      4.30124735      3.79776242
  H        7.56076992      3.71971751      3.22490706
  C        7.45468896      4.57375084      5.18612408
  H        6.53148137      4.03624509      5.44723399
  H        7.13295828      5.52743378      4.74190171
  C        8.21947692      4.88794674      6.48986730
  H        8.52339314      3.93742753      6.95090401
  C        9.48856823      5.71815022      6.24034001
  H        9.24088700      6.67195510      5.75636951
  H        9.99786651      5.94718106      7.18336392
  H       10.20500170      5.19561780      5.59824703
  C        7.29387124      5.60509978      7.48588579
  H        6.95919127      6.57006306      7.08374984
  H        7.80552918      5.80073529      8.43518255
  H        6.40080819      5.00774002      7.70296009



