%Mem=256MB 
%NProc=12 

#P HF/6-31G* SCF(Conver=6) NoSymm Test 
   Pop=mk IOp(6/33=2) GFInput GFPrint 

MEP - Input generated by R.E.D.-III.x MOLECULE 

0 1 
  C        1.01421993     -0.88304202     -1.68701490
  H        1.14440377      0.08731995     -2.18166907
  C        2.25010082     -1.75302474     -1.96616818
  H        2.38886065     -1.86037590     -3.04645605
  H        2.04503310     -2.76126867     -1.57306812
  C        3.50820004     -1.19326614     -1.32809890
  C        3.43427041     -0.86511594      0.16836446
  C        2.12913897     -0.04911024      0.42254731
  H        2.26598589      0.95561178      0.00000000
  H        1.98906019      0.08396901      1.50072703
  C        0.85578860     -0.65957781     -0.18311417
  H        0.62174993     -1.61992486      0.29970959
  H        0.00000000      0.00000000      0.00000000
  C        4.61102267     -1.01279688     -2.07124983
  H        4.58362187     -1.26819183     -3.12895143
  C        5.91193834     -0.46992376     -1.55418847
  H        6.75198516     -1.03474609     -1.97792069
  C        5.99434230     -0.49048656     -0.01695585
  H        6.14572663     -1.54703968      0.24554888
  C        4.66339696      0.00769955      0.60540471
  H        4.49218759      1.00770084      0.18057683
  C        4.77410814      0.18317956      2.13860711
  H        4.78448818     -0.79653857      2.62701981
  H        3.88011650      0.69546178      2.51257226
  C        6.01811439      0.96754930      2.60363185
  H        5.95146636      2.00711444      2.25237963
  H        6.00948546      1.00734067      3.69733174
  C        7.32222092      0.34756030      2.05989158
  C        7.18129327      0.32918440      0.51180952
  H        6.98603688      1.37238184      0.22764613
  C        8.58953858      0.00000000      0.00000000
  H        8.74486052      0.34844665     -1.02481901
  H        8.76419834     -1.08357685      0.00234231
  C        9.52029086      0.71664028      1.01614198
  H       10.29440418      0.03421475      1.38744673
  H       10.04578097      1.55225175      0.54495248
  C        8.62125568      1.21675709      2.19928423
  H        8.31814093      2.25272920      1.97962869
  C        7.55441073     -1.06022656      2.65493606
  H        6.76116113     -1.76333589      2.38791749
  H        8.49864606     -1.49613593      2.31486921
  H        7.59126980     -1.01805747      3.74853218
  C        9.38134479      1.25140207      3.55095794
  H        9.75215693      0.23488027      3.75375411
  C        8.49621672      1.67955613      4.73500759
  H        8.02721801      2.65249493      4.54120471
  H        9.08156245      1.77187957      5.65465387
  H        7.69954771      0.96013571      4.93707456
  C        3.37421844     -2.20313457      0.95539996
  H        3.12154680     -2.03559256      2.00657625
  H        2.61844591     -2.87851438      0.54745458
  H        4.33228485     -2.73056222      0.91349023
  O        6.09895644      0.91320719     -1.96309165
  O        6.27931574      0.92541815     -3.40707855
  H        5.43852234      1.31839374     -3.69441666
  O       -0.16328623     -1.42634454     -2.28937881
  H       -0.35587189     -2.28092556     -1.87857039
  C       10.62043180      2.17538955      3.44423221
  H       11.16441298      1.94769984      2.52072779
  H       10.27612374      3.21635360      3.34446531
  C       11.61899646      2.08029289      4.60930540
  H       11.13322704      2.36817572      5.54809501
  H       11.92993484      1.03171134      4.73084914
  C       12.86566131      2.95067584      4.38906998
  H       12.56250024      4.00548396      4.30228345
  H       13.31171778      2.68357282      3.42034872
  C       13.95574224      2.83522046      5.47413532
  H       14.21184059      1.76907185      5.57531810
  C       15.22746361      3.58230864      5.04158526
  H       15.02850143      4.65509733      4.92192395
  H       16.02530927      3.47422447      5.78522346
  H       15.60676733      3.20576510      4.08469637
  C       13.47948744      3.33766187      6.84689058
  H       13.18548477      4.39407863      6.79282372
  H       14.27824476      3.25415208      7.59270882
  H       12.62083448      2.77051042      7.21984021



