%Mem=256MB 
%NProc=12 

#P HF/6-31G* SCF(Conver=6) NoSymm Test 
   Pop=mk IOp(6/33=2) GFInput GFPrint 

MEP - Input generated by R.E.D.-III.x MOLECULE 

0 1 
  C        1.75825979     -1.24876365      0.06041765
  H        1.88319572     -1.21309884     -1.02878766
  C        3.14650386     -1.25817181      0.71995968
  H        3.72589437     -2.10849309      0.34708049
  H        3.00283952     -1.42368191      1.79931955
  C        3.90526419      0.03584771      0.48991281
  C        3.17335527      1.33596393      0.84613790
  C        1.74408949      1.27361324      0.22372636
  H        1.83976674      1.38392907     -0.86504552
  H        1.15898188      2.13134638      0.57258116
  C        0.96825877     -0.02076738      0.51283613
  H        0.75288034     -0.10869485      1.58802396
  H        0.00000000      0.00000000      0.00000000
  C        5.15418059      0.00000000      0.00000000
  H        5.60419413     -0.96385640     -0.23056930
  C        6.00353160      1.20902306     -0.26706322
  H        7.03659405      1.02302568      0.05305472
  C        5.46554883      2.47508257      0.42413704
  H        5.70241459      2.33763575      1.48834308
  C        3.92613408      2.57724604      0.24921281
  H        3.74802844      2.54744076     -0.83577761
  C        3.37067747      3.93026317      0.75743014
  H        3.37792466      3.95108853      1.85177627
  H        2.31965038      4.02602070      0.46152312
  C        4.14027924      5.16424080      0.24388352
  H        4.01323393      5.24774677     -0.84427984
  H        3.69237522      6.06330166      0.68349624
  C        5.64420693      5.06928524      0.56576368
  C        6.15522961      3.75038688     -0.08324984
  H        5.89725704      3.83175709     -1.14752430
  C        7.68796437      3.84796764      0.00000000
  H        8.17639145      3.24345437     -0.76938671
  H        8.05084998      3.48811946      0.97129751
  C        7.96976711      5.36856446     -0.16980402
  H        8.59908779      5.74012937      0.64528240
  H        8.51281141      5.58074807     -1.09715443
  C        6.57987769      6.08204086     -0.18256418
  H        6.23498886      6.04768593     -1.22511179
  C        5.86567695      5.08999844      2.09601461
  H        5.47412318      4.19221840      2.58151098
  H        6.92397769      5.16135438      2.35951335
  H        5.35541131      5.94470555      2.54954559
  C        6.67413543      7.59820423      0.15329500
  H        7.45853399      7.96356427     -0.52692589
  C        7.15348542      7.97045819      1.57116640
  H        6.36421147      7.84870136      2.31888078
  H        7.45643867      9.02355953      1.59079801
  H        8.01508160      7.37941543      1.89506594
  C        3.06445047      1.42334832      2.39333025
  H        2.38455412      2.22384359      2.69959595
  H        2.68226886      0.49519292      2.82490891
  H        4.04149055      1.61100756      2.84929223
  O        6.06090307      1.50241429     -1.69045119
  O        6.79441803      0.42290816     -2.33406361
  H        6.07698626     -0.03174079     -2.80582030
  O        1.05377537     -2.47150968      0.29084381
  H        0.88422400     -2.55779134      1.23951425
  C        5.39546892      8.41065072     -0.16761925
  H        4.58593284      8.07934439      0.49543113
  H        5.59317371      9.45640133      0.10954348
  C        4.88467383      8.39714166     -1.62166162
  H        4.61422908      7.37691128     -1.91628474
  H        3.95041697      8.97252541     -1.64473417
  C        5.87331894      8.99076992     -2.63911721
  H        6.77682666      8.36767471     -2.67478308
  H        6.19965673      9.97701897     -2.27700468
  C        5.35136408      9.15426655     -4.08666338
  H        6.19253747      9.56456680     -4.66483518
  C        4.97091734      7.81215980     -4.73364430
  H        4.09463243      7.36500707     -4.25022776
  H        4.72635112      7.94582545     -5.79361721
  H        5.79329764      7.09000846     -4.66960378
  C        4.19792446     10.16571762     -4.19359164
  H        3.29196193      9.80357782     -3.69409939
  H        3.93920798     10.35062823     -5.24247009
  H        4.46760467     11.12761819     -3.74179600



