%Mem=256MB 
%NProc=12 

#P HF/6-31G* SCF(Conver=6) NoSymm Test 
   Pop=mk IOp(6/33=2) GFInput GFPrint 

MEP - Input generated by R.E.D.-III.x MOLECULE 

0 1 
  C        1.01448500     -0.88125179     -1.68785110
  H        1.14420306      0.08964013     -2.18159706
  C        2.25077140     -1.75046595     -1.96794029
  H        2.38971844     -1.85624601     -3.04836300
  H        2.04590731     -2.75935870     -1.57639589
  C        3.50872300     -1.19145979     -1.32892740
  C        3.43418816     -0.86514363      0.16799057
  C        2.12923288     -0.04897705      0.42226109
  H        2.26616920      0.95584405      0.00000000
  H        1.98918403      0.08378154      1.50049607
  C        0.85595298     -0.65920501     -0.18371562
  H        0.62221887     -1.62002898      0.29825970
  H        0.00000000      0.00000000      0.00000000
  C        4.61160774     -1.00969392     -2.07165322
  H        4.58443536     -1.26352840     -3.12974996
  C        5.91244970     -0.46771020     -1.55338653
  H        6.75261059     -1.03179515     -1.97779290
  C        5.99433678     -0.49090586     -0.01627836
  H        6.14539657     -1.54794760      0.24461164
  C        4.66342617      0.00663229      0.60664051
  H        4.49252183      1.00737946      0.18343845
  C        4.77457668      0.17962482      2.14015494
  H        4.78466786     -0.80096011      2.62684376
  H        3.88086264      0.69160237      2.51527052
  C        6.01905053      0.96260513      2.60658748
  H        5.95311668      2.00287735      2.25735212
  H        6.00989090      1.00038426      3.70038443
  C        7.32296496      0.34286164      2.06208296
  C        7.18140294      0.32760889      0.51399777
  H        6.98560615      1.37139210      0.23238958
  C        8.58927372      0.00000000      0.00000000
  H        8.74429246      0.35389272     -1.02300004
  H        8.76301071     -1.08373945     -0.00375922
  C        9.52150845      0.70970430      1.01960264
  H       10.28998831      0.02148366      1.39161957
  H       10.05407207      1.54341429      0.55292224
  C        8.62259468      1.21137598      2.20166212
  H        8.32001834      2.24735843      1.98103907
  C        7.55502326     -1.06540999      2.65557012
  H        6.76059243     -1.76784907      2.39027333
  H        8.49819868     -1.50188153      2.31325984
  H        7.59431020     -1.02336559      3.74915375
  C        9.38410672      1.24722229      3.55292706
  H        9.74416192      0.22866156      3.75542253
  C        8.50479059      1.68347872      4.73714855
  H        8.06042959      2.67031477      4.55516355
  H        9.08747234      1.74968737      5.66100333
  H        7.69037472      0.98079581      4.92598506
  C        3.37291768     -2.20400593      0.95343056
  H        3.11986595     -2.03742864      2.00466220
  H        2.61679508     -2.87838360      0.54446351
  H        4.33053897     -2.73218214      0.91134676
  O        6.09952321      0.91612658     -1.95991235
  O        6.28133625      0.93062052     -3.40368753
  H        5.44032580      1.32283005     -3.69143206
  O       -0.16276945     -1.42452024     -2.29073966
  H       -0.35476219     -2.27974652     -1.88099783
  C       10.62177864      2.17295135      3.42873165
  H       11.21748305      1.86130156      2.56296007
  H       10.26557661      3.18884262      3.20127368
  C       11.56912839      2.25009322      4.64238703
  H       12.34546628      2.98649584      4.40067903
  H       11.04186362      2.65257427      5.51743377
  C       12.23051071      0.91634586      5.02149287
  H       12.75367251      0.50697000      4.14312787
  H       11.45091274      0.18643877      5.27643611
  C       13.22204655      0.98813207      6.20195656
  H       12.69921612      1.46380273      7.04632392
  C       13.63599095     -0.42446165      6.64475203
  H       14.15797155     -0.95010046      5.83476315
  H       14.31203892     -0.38993776      7.50673103
  H       12.76465381     -1.02736483      6.92522514
  C       14.46545184      1.83363346      5.88117126
  H       15.01354947      1.40929001      5.02979572
  H       15.15086986      1.86065036      6.73594641
  H       14.21055664      2.86843691      5.63210051



