%Mem=256MB 
%NProc=12 

#P HF/6-31G* SCF(Conver=6) NoSymm Test 
   Pop=mk IOp(6/33=2) GFInput GFPrint 

MEP - Input generated by R.E.D.-III.x MOLECULE 

0 1 
  C       -0.96303493      2.00354640      1.68785110
  H       -0.97989207      1.02417225      2.18159706
  C        0.38928394      2.67821002      1.96794029
  H        0.54248093      2.76203355      3.04836300
  H        0.33751913      3.70639010      1.57639589
  C        1.54955032      1.93745903      1.32892740
  C        1.42707871      1.62594918     -0.16799057
  C        0.01479131      1.01400109     -0.42226109
  H        0.00000000      0.00000000      0.00000000
  H       -0.14352756      0.90366678     -1.50049607
  C       -1.15297513      1.80768958      0.18371562
  H       -1.24047041      2.79265602     -0.29825970
  H       -2.09784326      1.28382800      0.00000000
  C        2.61287744      1.59288823      2.07165322
  H        2.62395062      1.84793268      3.12974996
  C        3.81809669      0.86255770      1.55338653
  H        4.73313267      1.29472817      1.97779290
  C        3.90253092      0.87325322      0.01627836
  H        4.20988848      1.89584191     -0.24461164
  C        2.51220476      0.58023373     -0.60664051
  H        2.19363985     -0.38372663     -0.18343845
  C        2.59624967      0.39257100     -2.14015494
  H        2.75279429      1.36063216     -2.62684376
  H        1.63605057      0.01992710     -2.51527052
  C        3.70971257     -0.56762361     -2.60658748
  H        3.48903121     -1.58635483     -2.25735212
  H        3.69500904     -0.60360927     -3.70038443
  C        5.09161171     -0.14973650     -2.06208296
  C        4.95391974     -0.11349600     -0.51399777
  H        4.60430947     -1.11628831     -0.23238958
  C        6.39494242     -0.00000000     -0.00000000
  H        6.49532385     -0.37308771      1.02300004
  H        6.72871291      1.04559696      0.00375922
  C        7.21062623     -0.84107176     -1.01960264
  H        8.07334081     -0.27544601     -1.39161957
  H        7.61259368     -1.74501784     -0.55292224
  C        6.24682622     -1.20274837     -2.20166212
  H        5.79280188     -2.18186735     -1.98103907
  C        5.53155576      1.20802978     -2.65557012
  H        4.85104190      2.02132056     -2.39027333
  H        6.52937483      1.49862294     -2.31325984
  H        5.56411705      1.16058552     -3.74915375
  C        6.99442587     -1.35201425     -3.55292706
  H        7.50267937     -0.39871257     -3.75542253
  C        6.05978087     -1.65193969     -4.73714855
  H        5.47291048     -2.56127199     -4.55516355
  H        6.62602092     -1.80449729     -5.66100333
  H        5.35954292     -0.83542068     -4.92598506
  C        1.56661459      2.95892933     -0.95343056
  H        1.29150742      2.83204662     -2.00466220
  H        0.91978432      3.73874805     -0.54446351
  H        2.59242423      3.33803780     -0.91134676
  O        3.79622835     -0.53369533      1.95991235
  O        3.97383260     -0.57520182      3.40368753
  H        3.08364661     -0.83730066      3.69143206
  O       -2.04586297      2.71667476      2.29073966
  H       -2.10786935      3.59099074      1.88099783
  C        8.07982678     -2.45233736     -3.42873165
  H        8.71542121     -2.23322770     -2.56296007
  H        7.57578216     -3.40357550     -3.20127368
  C        9.00500413     -2.67021183     -4.64238703
  H        9.66255180     -3.51438029     -4.40067903
  H        8.42350407     -2.98936199     -5.51743377
  C        9.85831033     -1.45030318     -5.02149287
  H       10.43678406     -1.12372241     -4.14312787
  H        9.19656830     -0.61207001     -5.27643611
  C       10.82797790     -1.66948660     -6.20195656
  H       10.23992281     -2.06166698     -7.04632392
  C       11.44841085     -0.33463308     -6.64475203
  H       12.04309433      0.10708115     -5.83476315
  H       12.11170417     -0.46981718     -7.50673103
  H       10.67697711      0.39173504     -6.92522514
  C       11.93103930     -2.69134024     -5.88117126
  H       12.53640594     -2.35368714     -5.02979572
  H       12.60471946     -2.82050222     -6.73594641
  H       11.52433670     -3.67642031     -5.63210051



