%Mem=256MB 
%NProc=12 

#P HF/6-31G* SCF(Conver=6) NoSymm Test 
   Pop=mk IOp(6/33=2) GFInput GFPrint 

MEP - Input generated by R.E.D.-III.x MOLECULE 

0 1 
  C       -0.96227466      2.00221300      1.69096628
  H       -0.98158566      1.02199430      2.18294957
  C        0.39078940      2.67399696      1.97421487
  H        0.54233377      2.75621308      3.05498003
  H        0.34171585      3.70263868      1.58365274
  C        1.55037545      1.93147538      1.33613397
  C        1.43036186      1.62381971     -0.16180925
  C        0.01724888      1.01500831     -0.41977202
  H        0.00000000      0.00000000      0.00000000
  H       -0.13990907      0.90771385     -1.49844991
  C       -1.15008585      1.80938832      0.18620567
  H       -1.23535746      2.79538997     -0.29408330
  H       -2.09547722      1.28735399      0.00000000
  C        2.61079954      1.58207147      2.08078788
  H        2.61975158      1.83475628      3.13944921
  C        3.81540459      0.84986470      1.56381922
  H        4.73037205      1.27789252      1.99267265
  C        3.90460509      0.86731411      0.02699499
  H        4.21174292      1.89160571     -0.22603578
  C        2.51464563      0.57744143     -0.60135218
  H        2.19400940     -0.38696369     -0.18072246
  C        2.59663088      0.39168072     -2.13635825
  H        2.75906530      1.35868971     -2.62276173
  H        1.63381294      0.02471636     -2.51013250
  C        3.70472681     -0.57610024     -2.59922026
  H        3.47387813     -1.59126903     -2.24800171
  H        3.70100684     -0.61315892     -3.69503073
  C        5.08490432     -0.16043590     -2.05446795
  C        4.95645635     -0.11809075     -0.50412488
  H        4.60846295     -1.11848329     -0.21435524
  C        6.40477988     -0.00000000     -0.00000000
  H        6.51427928     -0.38690946      1.01698778
  H        6.72887588      1.04845430      0.01734665
  C        7.22416153     -0.81775648     -1.03939835
  H        8.05182914     -0.22163239     -1.43698264
  H        7.67639545     -1.70894599     -0.59088577
  C        6.22781928     -1.22881592     -2.17047583
  H        5.75887560     -2.16286526     -1.83183483
  C        5.50177662      1.20761386     -2.64251832
  H        4.86442888      2.02111216     -2.28609378
  H        6.53115065      1.47109242     -2.38660453
  H        5.42593044      1.19930748     -3.73373964
  C        6.94254430     -1.60435471     -3.50035404
  H        7.70746629     -2.33009773     -3.18466286
  C        7.71495256     -0.47954989     -4.21931741
  H        7.04841340      0.19677701     -4.76260589
  H        8.39937812     -0.91734748     -4.95490115
  H        8.31803659      0.12382879     -3.53461729
  C        1.57350707      2.95816517     -0.94432576
  H        1.30202494      2.83315774     -1.99671400
  H        0.92574880      3.73774775     -0.53633606
  H        2.59942069      3.33643997     -0.89813010
  O        3.78841718     -0.54790907      1.96494683
  O        3.95595482     -0.59546341      3.40969054
  H        3.06224005     -0.85315548      3.69046999
  O       -2.04482995      2.71618907      2.29330721
  H       -2.10471150      3.59124392      1.88482097
  C        6.04421516     -2.32828447     -4.53329825
  H        5.26712213     -1.63457471     -4.87919063
  H        6.66449329     -2.53913425     -5.41664309
  C        5.37622494     -3.64814812     -4.10076806
  H        4.69698790     -3.46848225     -3.25983382
  H        4.74140065     -3.98037549     -4.93206691
  C        6.36991553     -4.76540507     -3.74112176
  H        6.95037397     -4.46590630     -2.85839056
  H        7.09623049     -4.86643702     -4.56122429
  C        5.76071013     -6.15955301     -3.45867136
  H        6.60854551     -6.81121098     -3.20037178
  C        4.80960821     -6.15595381     -2.25038052
  H        3.90273683     -5.57426728     -2.45221568
  H        4.49455614     -7.17521363     -1.99923652
  H        5.29134713     -5.72771945     -1.36355695
  C        5.08218779     -6.77480150     -4.69397157
  H        4.18309509     -6.21862907     -4.98329907
  H        4.77542849     -7.80797493     -4.49466388
  H        5.75951428     -6.78816599     -5.55603284



