%Mem=256MB 
%NProc=12 

#P HF/6-31G* SCF(Conver=6) NoSymm Test 
   Pop=mk IOp(6/33=2) GFInput GFPrint 

MEP - Input generated by R.E.D.-III.x MOLECULE 

0 1 
  C        1.01326784     -0.87611461     -1.69124217
  H        1.14178003      0.09604323     -2.18282877
  C        2.24984075     -1.74369796     -1.97453676
  H        2.38752612     -1.84737637     -3.05531420
  H        2.04644358     -2.75344324     -1.58448140
  C        3.50805183     -1.18459635     -1.33604415
  C        3.43542458     -0.86173298      0.16177345
  C        2.12970892     -0.04766947      0.41962734
  H        2.26489922      0.95849361      0.00000000
  H        1.99028722      0.08193764      1.49829043
  C        0.85641211     -0.65784144     -0.18643177
  H        0.62437603     -1.62006679      0.29358848
  H        0.00000000      0.00000000      0.00000000
  C        4.60951156     -0.99997163     -2.08022298
  H        4.58062194     -1.25145630     -3.13881906
  C        5.91085208     -0.45824003     -1.56308801
  H        6.75071793     -1.02097993     -1.98996681
  C        5.99529487     -0.48589477     -0.02617430
  H        6.14528413     -1.54411886      0.22922624
  C        4.66442927      0.01027977      0.60081926
  H        4.49247352      1.01147766      0.17907644
  C        4.77286522      0.18286709      2.13575520
  H        4.78686449     -0.79726661      2.62293131
  H        3.87633425      0.69134151      2.50866061
  C        6.01398793      0.97242125      2.59939951
  H        5.93897710      2.01125468      2.24929824
  H        6.01543132      1.00806398      3.69522688
  C        7.31634006      0.35466539      2.05468511
  C        7.18255323      0.33178056      0.50429920
  H        6.98742083      1.37289579      0.21458219
  C        8.59715399      0.00000000      0.00000000
  H        8.76191972      0.36417086     -1.01791288
  H        8.76291844     -1.08486371     -0.01485075
  C        9.52870510      0.69035777      1.03740682
  H       10.26236126     -0.01945262      1.43272386
  H       10.10391331      1.50693237      0.58774644
  C        8.60451913      1.24181618      2.17015299
  H        8.27884469      2.23524986      1.83347320
  C        7.52480093     -1.05985945      2.64345119
  H        6.77147361     -1.76897843      2.29032392
  H        8.50215713     -1.47505148      2.38469009
  H        7.45478245     -1.03919043      3.73498218
  C        9.36641398      1.50595689      3.50115947
  H       10.22175716      2.12698004      3.18762758
  C        9.97557974      0.27906656      4.20987415
  H        9.22232306     -0.29726576      4.75494887
  H       10.72013658      0.61077735      4.94248369
  H       10.48143978     -0.40144497      3.51894625
  C        3.37675791     -2.20214784      0.94479910
  H        3.12651778     -2.03752854      1.99700111
  H        2.61974180     -2.87599247      0.53655148
  H        4.33450259     -2.72975351      0.89927284
  O        6.09669718      0.92648019     -1.96730293
  O        6.27580407      0.94378650     -3.41139848
  H        5.43371714      1.33529625     -3.69695049
  O       -0.16427220     -1.41887757     -2.29399970
  H       -0.35520754     -2.27508755     -1.88581154
  C        8.58754365      2.35107671      4.53725422
  H        7.69411102      1.80397740      4.86658804
  H        9.22273447      2.44131730      5.43030118
  C        8.18898151      3.76820107      4.09621030
  H        9.08176930      4.28372467      3.71673592
  H        7.48263870      3.71742373      3.26033391
  C        7.56642544      4.57881837      5.24482691
  H        8.28601624      4.62071331      6.07531035
  H        6.69413071      4.03006811      5.62891368
  C        7.12319387      6.02305641      4.91357090
  H        6.71554284      6.43472151      5.84881257
  C        8.29915236      6.92307970      4.49926084
  H        8.72420533      6.61565960      3.53686882
  H        7.97487052      7.96479418      4.39487329
  H        9.10341960      6.89684248      5.24397199
  C        5.99485940      6.07321441      3.86996537
  H        6.33817134      5.73460614      2.88562542
  H        5.62004948      7.09616525      3.75023526
  H        5.14959571      5.44052845      4.16561485



