%Mem=256MB 
%NProc=12 

#P HF/6-31G* SCF(Conver=6) NoSymm Test 
   Pop=mk IOp(6/33=2) GFInput GFPrint 

MEP - Input generated by R.E.D.-III.x MOLECULE 

0 1 
  C        1.01388919     -0.87573439     -1.69105738
  H        1.14099865      0.09635153     -2.18311253
  C        2.25159850     -1.74170931     -1.97438461
  H        2.38901690     -1.84583223     -3.05515530
  H        2.04997563     -2.75151833     -1.58363581
  C        3.50911082     -1.18023856     -1.33672814
  C        3.43664173     -0.85719970      0.16109372
  C        2.12976278     -0.04515869      0.41944022
  H        2.26343950      0.96129985      0.00000000
  H        1.99060604      0.08397478      1.49818161
  C        0.85710382     -0.65698134     -0.18628539
  H        0.62606052     -1.61927880      0.29409623
  H        0.00000000      0.00000000      0.00000000
  C        4.60979552     -0.99362142     -2.08155781
  H        4.58084503     -1.24519686     -3.14012784
  C        5.91059101     -0.45026321     -1.56467254
  H        6.75105554     -1.01143975     -1.99244227
  C        5.99548904     -0.47941519     -0.02784650
  H        6.14466169     -1.53804431      0.22631259
  C        4.66464303      0.01682580      0.59926455
  H        4.49168467      1.01728041      0.17617506
  C        4.77272958      0.19198340      2.13403382
  H        4.78530980     -0.78711206      2.62325880
  H        3.87666894      0.70231590      2.50554521
  C        6.01458143      0.98125350      2.59635752
  H        5.94063014      2.01913034      2.24338684
  H        6.01589155      1.02015822      3.69211849
  C        7.31607871      0.36050932      2.05342234
  C        7.18380297      0.33646297      0.50290654
  H        6.99134159      1.37762652      0.21171427
  C        8.59794491      0.00000000      0.00000000
  H        8.76536340      0.36513479     -1.01714950
  H        8.75956704     -1.08544722     -0.01647912
  C        9.53096117      0.68510362      1.03945615
  H       10.25821109     -0.02924927      1.43862830
  H       10.11345835      1.49692954      0.59056409
  C        8.60757246      1.24370320      2.16920044
  H        8.28563969      2.23750559      1.82918372
  C        7.52024507     -1.05448302      2.64248718
  H        6.76579185     -1.76141253      2.28756186
  H        8.49695157     -1.47210076      2.38522365
  H        7.44809180     -1.03412640      3.73377876
  C        9.37044836      1.50765107      3.49929555
  H       10.23828714      2.10618861      3.18181203
  C        9.96001703      0.27878300      4.22116424
  H        9.19709377     -0.28415056      4.76691012
  H       10.70471386      0.60700803      4.95528922
  H       10.46169899     -0.41299191      3.53825206
  C        3.38056620     -2.19740659      0.94466596
  H        3.13002018     -2.03275248      1.99678664
  H        2.62481382     -2.87288315      0.53683205
  H        4.33924187     -2.72337781      0.89949152
  O        6.09433219      0.93518830     -1.96721410
  O        6.26953170      0.95507998     -3.41170343
  H        5.42560415      1.34473782     -3.69439491
  O       -0.16310077     -1.42025977     -2.29327168
  H       -0.35299379     -2.27647074     -1.88460567
  C        8.59511833      2.36557712      4.52900013
  H        7.71174210      1.80941054      4.86803775
  H        9.23179337      2.46483629      5.41863812
  C        8.14716528      3.77223293      4.08632749
  H        7.41870638      3.69091939      3.27094814
  H        7.59751134      4.22820397      4.91985155
  C        9.26762587      4.72734382      3.63162451
  H        8.80564382      5.67873963      3.32886752
  H        9.74037873      4.32653444      2.72488148
  C       10.37514539      5.03599259      4.66134836
  H       10.84937173      4.08754033      4.95271580
  C       11.46228398      5.91609682      4.02369795
  H       11.04963843      6.88554848      3.71601881
  H       12.27994290      6.11151495      4.72689957
  H       11.89115852      5.44038344      3.13422204
  C        9.82524067      5.69733963      5.93519929
  H        9.31825386      6.64113707      5.69539499
  H       10.63446088      5.92518153      6.63833147
  H        9.10690239      5.05672377      6.45687255



