%Mem=256MB 
%NProc=12 

#P HF/6-31G* SCF(Conver=6) NoSymm Test 
   Pop=mk IOp(6/33=2) GFInput GFPrint 

MEP - Input generated by R.E.D.-III.x MOLECULE 

0 1 
  C       -0.96544574      2.00646069      1.68440078
  H       -0.97974512      1.02856346      2.18111995
  C        0.38586520      2.68463576      1.96081897
  H        0.54006999      2.77235358      3.04078550
  H        0.33170999      3.71133182      1.56583106
  C        1.54661177      1.94362234      1.32304728
  C        1.42371484      1.62839343     -0.17301434
  C        0.01229679      1.01313715     -0.42442629
  H        0.00000000      0.00000000      0.00000000
  H       -0.14713864      0.90021695     -1.50223273
  C       -1.15661259      1.80570695      0.18104559
  H       -1.24732247      2.78909372     -0.30359510
  H       -2.10039357      1.27896571      0.00000000
  C        2.61035416      1.60180335      2.06644974
  H        2.62140423      1.85963537      3.12385818
  C        3.81562191      0.87065613      1.54983725
  H        4.73073820      1.30353243      1.97340002
  C        3.90047628      0.87849646      0.01286353
  H        4.20797990      1.90057740     -0.24979652
  C        2.51032213      0.58356679     -0.61063509
  H        2.19291695     -0.38034259     -0.18642860
  C        2.59390431      0.39476271     -2.14421190
  H        2.74926480      1.36271659     -2.63134874
  H        1.63367783      0.02129898     -2.51841644
  C        3.70808463     -0.56477907     -2.61055492
  H        3.48671438     -1.58402175     -2.26317003
  H        3.69738201     -0.59880716     -3.70474140
  C        5.08819007     -0.14643548     -2.06346710
  C        4.95123924     -0.10962224     -0.51578008
  H        4.59903711     -1.11152172     -0.23440089
  C        6.39320988     -0.00000000      0.00000000
  H        6.49272453     -0.38836384      1.01736486
  H        6.72447177      1.04620176      0.02084753
  C        7.21401819     -0.82155917     -1.03285408
  H        8.05587893     -0.23295036     -1.41630119
  H        7.64764344     -1.71775912     -0.57834584
  C        6.24181588     -1.20032039     -2.19876232
  H        5.78506769     -2.17132865     -1.95754644
  C        5.52725254      1.20966328     -2.66058853
  H        4.84402838      2.02249667     -2.40110519
  H        6.52324385      1.50459720     -2.31671665
  H        5.56238949      1.15694108     -3.75405738
  C        6.97532002     -1.35951963     -3.55352110
  H        7.43764951     -0.39035954     -3.79176939
  C        6.04376918     -1.72056065     -4.72614530
  H        5.41549269     -2.58871178     -4.49750616
  H        6.63045019     -1.96229531     -5.62041603
  H        5.37820403     -0.89449202     -4.98951767
  C        1.56006402      2.95981697     -0.96172355
  H        1.28272619      2.83025318     -2.01201515
  H        0.91344832      3.73994729     -0.55304141
  H        2.58560511      3.34000045     -0.92279694
  O        3.79375437     -0.52482744      1.95917715
  O        3.97214172     -0.56338501      3.40292749
  H        3.08198950     -0.82443015      3.69173621
  O       -2.04901939      2.71923420      2.28631505
  H       -2.11321742      3.59217822      1.87399323
  C        8.15188232     -2.36863540     -3.46834668
  H        8.67205141     -2.35284641     -4.43694573
  H        8.88403836     -2.01243910     -2.73292599
  C        7.78890950     -3.82545905     -3.13469252
  H        7.30072274     -3.86860849     -2.15348409
  H        7.05758534     -4.19915227     -3.86150040
  C        9.02662670     -4.73790711     -3.13385702
  H        9.76008559     -4.33435499     -2.42067902
  H        9.50460047     -4.68100218     -4.12268696
  C        8.78986639     -6.22797565     -2.79423476
  H        9.77713603     -6.71008250     -2.85117829
  C        8.26978256     -6.43448436     -1.36187316
  H        7.25709558     -6.03411822     -1.23692857
  H        8.23205414     -7.50070720     -1.11081678
  H        8.91713994     -5.94133336     -0.62719498
  C        7.88416500     -6.93299083     -3.81760180
  H        6.85718866     -6.55185586     -3.77863151
  H        7.83984343     -8.01047820     -3.62181746
  H        8.25393593     -6.79436031     -4.84046575



