%Mem=256MB 
%NProc=12 

#P HF/6-31G* SCF(Conver=6) NoSymm Test 
   Pop=mk IOp(6/33=2) GFInput GFPrint 

MEP - Input generated by R.E.D.-III.x MOLECULE 

0 1 
  C       -0.96545018      2.00644869      1.68440547
  H       -0.97975181      1.02854995      2.18112015
  C        0.38585950      2.68462244      1.96083059
  H        0.54006297      2.77233055      3.04079793
  H        0.33170652      3.71132216      1.56585097
  C        1.54660788      1.94361386      1.32305365
  C        1.42371157      1.62839603     -0.17300982
  C        0.01229476      1.01313863     -0.42442485
  H        0.00000000      0.00000000      0.00000000
  H       -0.14714083      0.90022055     -1.50223113
  C       -1.15661594      1.80570456      0.18104969
  H       -1.24732516      2.78909455     -0.30358698
  H       -2.10039584      1.27896438      0.00000000
  C        2.61034645      1.60178634      2.06645632
  H        2.62139305      1.85960732      3.12386749
  C        3.81561540      0.87064430      1.54983854
  H        4.73073182      1.30351835      1.97340671
  C        3.90047238      0.87849784      0.01286573
  H        4.20797685      1.90058122     -0.24978521
  C        2.51031988      0.58357431     -0.61063849
  H        2.19291351     -0.38033957     -0.18643965
  C        2.59390436      0.39478172     -2.14421613
  H        2.74926870      1.36273984     -2.63134467
  H        1.63367805      0.02132392     -2.51842607
  C        3.70808493     -0.56475710     -2.61056466
  H        3.48671348     -1.58400202     -2.26318795
  H        3.69738383     -0.59877695     -3.70475142
  C        5.08818900     -0.14641801     -2.06347180
  C        4.95123591     -0.10961751     -0.51578305
  H        4.59903219     -1.11151892     -0.23441254
  C        6.39320474     -0.00000000      0.00000000
  H        6.49271679     -0.38837300      1.01736268
  H        6.72446886      1.04619989      0.02085822
  C        7.21401457     -0.82155271     -1.03285936
  H        8.05587547     -0.23294106     -1.41630072
  H        7.64763961     -1.71775663     -0.57835749
  C        6.24181384     -1.20030304     -2.19877099
  H        5.78506571     -2.17131375     -1.95756466
  C        5.52725456      1.20968466     -2.66057981
  H        4.84403046      2.02251666     -2.40109172
  H        6.52324532      1.50461499     -2.31670443
  H        5.56239337      1.15697209     -3.75405056
  C        6.97532198     -1.35949017     -3.55352970
  H        7.43765451     -0.39032956     -3.79176760
  C        6.04377444     -1.72051959     -4.72616022
  H        5.41549730     -2.58867253     -4.49753222
  H        6.63045831     -1.96224501     -5.62043064
  H        5.37821014     -0.89444746     -4.98952655
  C        1.56005821      2.95982523     -0.96171194
  H        1.28271428      2.83026740     -2.01200239
  H        0.91344653      3.73995418     -0.55302196
  H        2.58559997      3.34000620     -0.92278838
  O        3.79375144     -0.52484301      1.95916815
  O        3.97212636     -0.56341207      3.40291838
  H        3.08197125     -0.82445504      3.69171923
  O       -2.04902411      2.71922125      2.28632199
  H       -2.11322439      3.59216639      1.87400074
  C        8.15188121     -2.36861108     -3.46835967
  H        8.67205406     -2.35281322     -4.43695655
  H        8.88403399     -2.01242337     -2.73293078
  C        7.78890074     -3.82543587     -3.13472203
  H        7.30071613     -3.86859391     -2.15351339
  H        7.05757372     -4.19911736     -3.86153359
  C        9.02661372     -4.73789007     -3.13389793
  H        9.76008103     -4.33434238     -2.42072470
  H        9.50458009     -4.68098756     -4.12273097
  C        8.78984883     -6.22795857     -2.79427302
  H        9.77711757     -6.71006843     -2.85121837
  C        8.26976856     -6.43446352     -1.36190932
  H        7.25708491     -6.03409007     -1.23696102
  H        8.23203378     -7.50068641     -1.11085260
  H        8.91713325     -5.94131749     -0.62723424
  C        7.88414328     -6.93297306     -3.81763638
  H        6.85716648     -6.55183804     -3.77866009
  H        7.83982183     -8.01046006     -3.62185300
  H        8.25390835     -6.79434127     -4.84050293



